# vtk DataFile Version 2.0
VTK exported mesh
ASCII
DATASET UNSTRUCTURED_GRID
POINTS 502 double
-0.050607919693 -0.00180609233212 0.00559063674882 
-0.0590163096786 -0.00184986344539 -0.0115515775979 
-0.0422483421862 -0.00151022372302 -0.00692295050249 
-0.0488654635847 -0.00138546829112 -0.0139755290002 
-0.035360109061 -0.00148708990309 -0.019821330905 
-0.0446680374444 -0.00101146800444 -0.0272442568094 
-0.0348809957504 -0.00106105359737 -0.0321955233812 
-0.0152246728539 -0.00150473730173 -0.0200412198901 
-0.0609580650926 -0.00144485814963 0.0191702041775 
-0.0734464377165 -0.001373106963 -0.00042891909834 
-0.0529330447316 -0.00183434272185 0.019303381443 
-0.0852826014161 0.0625779777765 -0.00568596366793 
-0.0835690721869 0.0490048080683 -0.00613984186202 
-0.0897073969245 0.0528900176287 0.0049196369946 
-0.0793521553278 0.0391482077539 -0.00551019702107 
-0.0831550657749 0.0426159016788 -0.000308395654429 
-0.0773780718446 0.0609147027135 -0.0142321605235 
-0.0738272964954 0.0497814230621 -0.0173948071897 
-0.0717998966575 0.0337412729859 -0.005001665093 
-0.0754981711507 0.0321926474571 0.00284472364001 
-0.0681552216411 0.0408150590956 -0.0172304157168 
-0.0681356713176 0.00794215686619 -0.00602587964386 
-0.062621936202 0.0321550704539 -0.010943422094 
-0.0652076676488 0.0693694725633 -0.0181031171232 
-0.0631466209888 0.0615927986801 -0.0201213993132 
-0.0663135573268 0.0279329586774 -0.00361555046402 
-0.0763384848833 0.0679274350405 -0.0127662215382 
-0.0737304389477 0.0798727273941 -0.00903927814215 
-0.0843665972352 0.0768818482757 0.000615613244008 
-0.0879389345646 0.0892346575856 -0.00343007640913 
-0.0816735997796 0.101725846529 -0.00485880626366 
-0.0741317644715 0.0953814387321 -0.0100481295958 
-0.0793848708272 0.122358389199 -0.0173698104918 
-0.0759315192699 0.120031788945 -0.020365588367 
-0.0782884508371 0.120131380856 -0.00229021604173 
-0.0775062963367 0.127200901508 -0.0119100706652 
-0.0807259753346 0.13117004931 -0.0333111770451 
-0.0723384171724 0.106575593352 -0.00856411922723 
-0.0787062868476 0.11385513097 -0.00482224579901 
-0.0771431550384 0.116589508951 -0.021952630952 
-0.0730814263225 0.112276174128 -0.0249183438718 
-0.0738590359688 0.123091012239 -0.0366446524858 
-0.0738801136613 0.115502044559 -0.0408803299069 
-0.0693601816893 0.12782278657 -0.00651893485337 
-0.0754041820765 0.12906076014 -0.0372574031353 
-0.0681366920471 0.109827406704 -0.0218581408262 
-0.0662491247058 0.106720402837 -0.00894726905972 
-0.0679628476501 0.113703258336 -0.0368868932128 
-0.0636928379536 0.122200198472 -0.0553187914193 
-0.0683494284749 0.125750645995 -0.0577189363539 
-0.063126206398 0.121008530259 -0.00594602385536 
-0.0720913857222 0.123218432069 0.00474523054436 
-0.0713377073407 0.129033833742 -0.0497722476721 
-0.0608443878591 0.0874474793673 -0.0103412624449 
-0.0566989220679 0.0797202438116 -0.0179614815861 
-0.0618016272783 0.115813925862 -0.0271439887583 
-0.0621238946915 0.124340504408 -0.0457699932158 
-0.0599706806242 0.123743124306 -0.0188536178321 
-0.0775464996696 0.136229559779 -0.0290362965316 
-0.0722054988146 0.13662558794 -0.0515023358166 
-0.0808713957667 0.141880735755 -0.0473618470132 
-0.0721236690879 0.141721054912 -0.0391945280135 
-0.0729280859232 0.143645122647 -0.05625044927 
-0.0717239826918 0.149009391665 -0.0524213984609 
-0.0720090344548 0.136657595634 -0.0244046486914 
-0.0646282956004 0.133885383606 -0.0263426881284 
-0.0607502572238 0.146261140704 -0.0610449835658 
-0.0646832510829 0.141728594899 -0.0484276227653 
-0.064871378243 0.13787381351 -0.0621375069022 
-0.0636710301042 0.136711612344 -0.0407851710916 
-0.0552465803921 0.047821868211 -0.0228971019387 
-0.0581841729581 0.0387789644301 -0.018764782697 
-0.058122806251 0.0232834853232 -3.23862004734e-05 
-0.0539582595229 0.0310295671225 -0.0116274058819 
-0.0563665628433 0.0588722750545 -0.0234292596579 
-0.049681134522 0.00771819707006 -0.0126631241292 
-0.0580533593893 0.0134844919667 -0.00530833285302 
-0.0526987425983 0.0179182961583 -0.00851085782051 
-0.045001257211 0.0360630825162 -0.0181176681072 
-0.0461334735155 0.0211547333747 -0.0123683316633 
-0.0480129010975 0.0407726503909 -0.0191640891135 
-0.0458394214511 0.00698596565053 -0.0217064898461 
-0.0428227521479 0.0147656453773 -0.0125050619245 
-0.0406012050807 0.0249944087118 -0.0131646664813 
-0.044589381665 0.0535606779158 -0.0236394032836 
-0.0525439158082 0.0652909427881 -0.0233551170677 
-0.0392768867314 0.0122133372352 -0.0264235660434 
-0.0366458557546 0.0407914482057 -0.0194671154022 
-0.0364559069276 0.0325424261391 -0.0162453688681 
-0.0409259088337 0.0660555511713 -0.0231221150607 
-0.0348122268915 0.0522159524262 -0.0258012786508 
-0.031042104587 0.00334488856606 -0.0168753899634 
-0.0366350151598 0.00312278000638 -0.00587038416415 
-0.0356246568263 -0.00175604084507 0.00644549494609 
-0.0329789035022 0.0181185249239 -0.0111987488344 
-0.0316629633307 0.0100265191868 -0.030809732154 
-0.0298055224121 0.0161760188639 -0.0239652581513 
-0.0307725667953 0.0247186068445 -0.0232026912272 
-0.0324152521789 0.0425712130964 -0.0336731411517 
-0.0292601361871 0.0606141388416 -0.0258157067001 
-0.0239649731666 0.00301045388915 -0.0014417321654 
-0.0288335755467 0.0319817811251 -0.0320076607168 
-0.0257899872959 0.0212622769177 -0.0303940381855 
-0.0292613096535 0.0498181506991 -0.0372121706605 
-0.0270226914436 0.0567746013403 -0.0363022200763 
-0.0175089109689 0.010490144603 -0.0293876435608 
-0.0234316643327 0.0366068705916 -0.0393664687872 
-0.0133063457906 0.000720786629245 -0.0270607247949 
-0.0201554559171 0.0256969854236 -0.0360003188252 
-0.0196268334985 0.0479433164001 -0.0408120490611 
-0.0154009507969 0.0660489201546 -0.0258639957756 
-0.0171598363668 0.062126070261 -0.0340400747955 
-0.00329364091158 0.00387122295797 -0.0135070281103 
-0.0006585016381 0.00355465873145 0.00096909084823 
-0.0139370355755 0.0194781348109 -0.0350243635476 
-0.0154979061335 0.0567951239645 -0.0388310551643 
-0.0132615389302 0.0273737683892 -0.0376354679465 
-0.0136966835707 0.0371592454612 -0.0398347899318 
-0.00562933506444 0.0437817573547 -0.0388783626258 
-0.0019232800696 0.0127557683736 -0.0312129259109 
-0.00305716600269 0.0506781041622 -0.0388751402497 
-0.00270153395832 0.0606079734862 -0.0354486741126 
-0.00416914513335 0.0652482062578 -0.0299977958202 
0.00241070264019 0.00143507460598 -0.0255290400237 
0.00405256217346 0.008565380238 -0.0257683843374 
-0.00179054227192 0.0348758399487 -0.036213517189 
-0.000924696621951 0.0286880470812 -0.0360989831388 
0.00654326239601 -0.0012940649176 -0.0166665595025 
0.00204954715446 0.0224465858191 -0.0330640822649 
-0.0580128915608 0.103981740773 -0.00713411718607 
-0.0609251223505 0.111110627651 -0.00691057601944 
-0.0553063750267 0.110951289535 -0.00262996205129 
-0.0645845457911 0.121972233057 0.0017403109232 
-0.0600362084806 0.126293629408 -0.0339082293212 
-0.0501278750598 0.0955856591463 -0.00506487535313 
-0.0572804883122 0.122054181993 -0.00231121270917 
-0.0483646243811 0.104291670024 0.00311383488588 
-0.0470298863947 0.11660348624 -0.00639516720548 
-0.0458546988666 0.072104409337 -0.0217910949141 
-0.0481661595404 0.0869050770998 -0.0147130265832 
-0.043340831995 0.0911524966359 -0.0116061614826 
-0.045626681298 0.124919489026 -0.0103721739724 
-0.0392400249839 0.0830993503332 -0.0165585782379 
-0.0422756485641 0.112995304167 -0.00339981075376 
-0.0377155691385 0.0939742028713 -0.00508923083544 
-0.0395460054278 0.121232822537 -0.0109719531611 
-0.033848349005 0.0727206617594 -0.022324277088 
-0.0349184237421 0.130707010627 -0.0166582986712 
-0.0288034118712 0.0901779010892 -0.00564569002017 
-0.0281833298504 0.119999423623 -0.00817897543311 
-0.0351540707052 0.116443648934 0.000683494959958 
-0.0298204701394 0.124547608197 -0.0141318365932 
-0.0240947678685 0.0848571136594 -0.0144469374791 
-0.0217944029719 0.125944599509 -0.000594359938987 
-0.0264829751104 0.0714057907462 -0.0243807341903 
-0.0199004840106 0.0797719955444 -0.0200232286006 
-0.0152988592163 0.0916993692517 -0.00674025714397 
-0.0153816575184 0.125226408243 -0.0125409541652 
-0.0134869562462 0.0839613676071 -0.0168281160295 
-0.0108451796696 0.132384464145 -0.0130934920162 
-0.00283075938933 0.0673582106829 -0.0247465595603 
-0.00660831807181 0.0768462195992 -0.0234818737954 
-0.00192033720668 0.0789258033037 -0.0212629754096 
-0.0034822744783 0.0870980024338 -0.0145143335685 
-0.00726671423763 0.0942638292909 -0.0074705760926 
0.00773591222242 0.0708934292197 -0.0222389604896 
0.00553651014343 0.0860722586513 -0.0169867333025 
0.00828219857067 0.0942411422729 -0.00679817749187 
0.0039082961157 0.0977837666869 -0.000288295908831 
-0.060671068728 0.133980572224 -0.0506767593324 
-0.0519194416702 0.131084427238 -0.00370104215108 
-0.0461443401873 0.131931275129 -0.00944726541638 
-0.0384695716202 0.142662465572 -0.00948880240321 
-0.0465589016676 0.13635802269 0.000817072112113 
-0.0371257811785 0.137610316277 -0.01456239447 
-0.0288061611354 0.13534347713 -0.00708670541644 
-0.0264756511897 0.147388651967 -0.00539776636288 
-0.0371937304735 0.128848522902 0.00105696427636 
-0.0268519558012 0.134496927261 -0.020074352622 
-0.0255587454885 0.147205010056 -0.0192734487355 
-0.0196461677551 0.155298396945 -0.0169899761677 
-0.0229256097227 0.14330136776 -0.0226365383714 
-0.0177115350962 0.147413119674 -0.0159453675151 
-0.0160180777311 0.129607781768 -0.018856042996 
-0.0171459633857 0.137999013066 -0.0146547695622 
-0.0199713483453 0.136095508933 -0.022415695712 
-0.0103113017976 0.139835104346 -0.0303335841745 
-0.0133092533797 0.145542740822 -0.0203643646091 
-0.0174022447318 0.149091571569 -0.0275116097182 
-0.00864073541015 0.14736032486 -0.0274904984981 
-0.0912155359983 0.0628825202584 0.0148767372593 
-0.0908014550805 0.0573005191982 0.0225948486477 
-0.0898090451956 0.0646953880787 0.00618626456708 
-0.0876788198948 0.0453688688576 0.0159580595791 
-0.0881751701236 0.049697779119 0.00771100772545 
-0.0841277316213 0.0408365726471 0.0036184201017 
-0.0875377207994 0.0521025657654 0.0251737907529 
-0.0840521454811 0.0468792393804 0.0298754815012 
-0.0854921489954 0.0623665563762 0.0309856701642 
-0.0811967179179 0.0362363234162 0.0156302619725 
-0.0775065124035 0.0328460000455 0.00988688226789 
-0.0761866867542 0.0334229804575 0.022290667519 
-0.0758753269911 0.0365019626915 0.0302071943879 
-0.0724466145039 0.0396549925208 0.0372289307415 
-0.0761778503656 0.0490388274193 0.039553258568 
-0.07397031039 0.0590600632131 0.0427072048187 
-0.0759229585528 0.067572362721 0.0385627932847 
-0.0701710581779 0.0261217430234 0.0165981967002 
-0.0692875161767 0.0110862590373 0.00815579015762 
-0.0723090842366 0.00107960088644 0.0122170886025 
-0.0697491690516 0.0260390304029 0.00892912223935 
-0.066411793232 0.0282737314701 0.0259794350713 
-0.0644495338202 0.0323125608265 0.0347884446383 
-0.0644409134984 0.0562517382205 0.0467748232186 
-0.0626191645861 -0.000147493090481 0.0456200651824 
-0.0676202774048 0.00657588941976 0.0361742675304 
-0.0682697892189 0.000123091536807 0.0279698949307 
-0.0591069124639 0.0155941620469 0.00849771406502 
-0.0634417235851 0.0121239144355 0.0298803839833 
-0.0558727197349 0.0216650608927 0.00910035148263 
-0.0654527842999 0.0472572632134 0.0444684587419 
-0.0946386829019 0.0881645083427 0.00996769871563 
-0.0926588773727 0.0815215706825 0.00674946559593 
-0.0949664413929 0.0814028978348 0.0186398718506 
-0.0945341214538 0.0875412523746 0.0424233339727 
-0.0941537544131 0.0882400795817 0.0297437105328 
-0.0935852080584 0.0807765871286 0.0378540754318 
-0.0961849167943 0.0913501828909 0.0208735428751 
-0.0930684730411 0.0975533127785 0.00869848579168 
-0.0929321348667 0.0965912565589 0.0311553608626 
-0.0924790725112 0.10199777782 0.0178650449961 
-0.0899499356747 0.0677296370268 0.0204762201756 
-0.0882858559489 0.0748294442892 0.0140610598028 
-0.0910287946463 0.0804533958435 0.0276878885925 
-0.0884300991893 0.0763296484947 0.0387389697134 
-0.0877431407571 0.0812970101833 0.0485921502113 
-0.0916762799025 0.0957847908139 0.042845480144 
-0.0889899134636 0.106765970588 0.00888878200203 
-0.0897847861052 0.101439103484 0.00325598986819 
-0.0912998691201 0.107607617974 0.0295927114785 
-0.0904537662864 0.105685688555 0.038669295609 
-0.0933130085468 0.108325630426 0.0171559136361 
-0.0870064049959 0.113533988595 0.036794796586 
-0.0929593965411 0.116872780025 0.0195218641311 
-0.0893171578646 0.115439645946 0.00887496769428 
-0.0806436911225 0.123027041554 0.0146088898182 
-0.0831429064274 0.0752260535955 0.0288214161992 
-0.078205704689 0.0755860432982 0.0465687960386 
-0.0853358656168 0.0978806018829 0.0510569289327 
-0.0794550180435 0.110400803387 0.0464372970164 
-0.0865727737546 0.120598964393 0.0234746150672 
-0.0806822776794 0.094372279942 0.0544212758541 
-0.0775855332613 0.101943686604 0.0529475882649 
-0.0774768292904 0.120850339532 0.0331277288496 
-0.0747348442674 0.073105096817 0.038009095937 
-0.0745234042406 0.08383692801 0.0549178123474 
-0.0706441253424 0.0927796214819 0.0541482642293 
-0.0689158067107 0.109262496233 0.0467367358506 
-0.0679411515594 0.124127849936 0.023470621556 
-0.0655354112387 0.076435521245 0.0388557985425 
-0.0610809400678 0.0706161782146 0.0429631471634 
-0.0683830752969 0.0789642930031 0.0513632893562 
-0.0649670138955 0.085070155561 0.0524452067912 
-0.0673340260983 0.0978315621614 0.0492623336613 
-0.0626398772001 0.120536014438 0.0352308861911 
-0.0611025840044 0.081888474524 0.0413270480931 
-0.0603891424835 0.0904707014561 0.0443886294961 
-0.0622334256768 0.101479150355 0.0394000522792 
-0.0633031874895 0.109346523881 0.0402478761971 
-0.0594019852579 0.123501673341 0.010415465571 
-0.0594443976879 0.00771780079231 0.0196861214936 
-0.0535203404725 -0.000916345685255 0.0327819138765 
-0.061036169529 0.0147071219981 0.0408482812345 
-0.0599737167358 0.039350848645 0.0426167845726 
-0.0546332895756 0.00922235567123 0.0479048117995 
-0.0390744283795 -0.000161592484801 0.0441515371203 
-0.0542172044516 0.0160148106515 0.0268967170268 
-0.0537633113563 0.0236973855644 0.0248166285455 
-0.0513040050864 0.0505569167435 0.0473301783204 
-0.0510561987758 0.0598222017288 0.0462222062051 
-0.0406101346016 -0.00134567613713 0.0275890994817 
-0.0512460768223 0.0149105023593 0.0169152189046 
-0.0497962273657 0.0175741426647 0.0382362306118 
-0.0506891198456 0.028607647866 0.0348228402436 
-0.0484144538641 0.0396361388266 0.0433520749211 
-0.0438462495804 0.00101628771517 0.00863258168101 
-0.044833380729 0.0123114120215 0.0431736037135 
-0.0454671792686 0.0298972819 0.0409716181457 
-0.0381879881024 0.0134421233088 0.0413000844419 
-0.0423104800284 0.0511731095612 0.0439678169787 
-0.0388730354607 0.0177700184286 0.0406391508877 
-0.037476260215 0.0286745578051 0.0429163500667 
-0.0387426503003 0.0456013865769 0.0446590743959 
-0.0395907312632 0.0665125846863 0.0429114922881 
-0.035693384707 -0.000840129796416 0.0338051617146 
-0.0307070538402 -0.00146857381333 0.0182749051601 
-0.0338923372328 0.00841791834682 0.0510024428368 
-0.033559538424 0.0620175711811 0.0463965758681 
-0.031033821404 0.0439209677279 0.0422067418694 
-0.0243932213634 0.00102300476283 0.0560411028564 
-0.026575088501 0.00250418297946 0.0122883031145 
-0.0188775286078 0.00381681602448 0.0396268330514 
-0.030592283234 0.0032146985177 0.0344066694379 
-0.0181837175041 -0.000711367640179 0.0461041927338 
-0.0229443032295 0.0111298151314 0.0552668273449 
-0.026471471414 0.0161786861718 0.0495393387973 
-0.0278366263956 0.019676508382 0.038569316268 
-0.0281539019197 0.0298332311213 0.0385863184929 
-0.0250724591315 0.0506623275578 0.0561267659068 
-0.0280482005328 0.0595655664802 0.0462233908474 
-0.0263269767165 0.0449383147061 0.0527397245169 
-0.0181649066508 0.0156148476526 0.0491678640246 
-0.0190506260842 0.0286794248968 0.0528025962412 
-0.0178491808474 0.0452096350491 0.0582352131605 
-0.0192785505205 0.0621854886413 0.0529527850449 
-0.0143693201244 0.0682556703687 0.0448603145778 
-0.0241437852383 0.0685815736651 0.0453355424106 
-0.0114053478464 -4.44051729573e-05 0.0400010347366 
-0.00677362270653 0.0179819241166 0.0542100556195 
-0.0129668302834 0.0589224249125 0.058008633554 
0.000397126219468 9.43208651734e-05 0.0476229377091 
-0.00952484458685 0.0271934177727 0.0574189648032 
-0.0113447252661 0.0352457724512 0.0567872226238 
-0.00434334482998 0.00294074625708 0.0167402736843 
-0.00112276512664 0.00413767434657 0.0360549166799 
-0.000899801845662 0.0106799481437 0.0479379668832 
-0.00462753465399 0.0415283478796 0.0600209087133 
-0.00470440136269 0.0659304782748 0.0528728887439 
0.00283859134652 0.0279035456479 0.0578867718577 
0.000743775861338 0.0384198464453 0.0584150254726 
0.00975498557091 -0.000419112417148 0.035583961755 
0.00159337732475 -0.0011013726471 0.00467740511522 
0.00405184179544 0.0158462580293 0.0539389885962 
0.000265620095888 0.0599672682583 0.0568869411945 
-0.0583850815892 0.114398874342 0.0368043780327 
-0.0530949756503 0.105396650732 0.0301869139075 
-0.0530899316072 0.0812728106976 0.0359705165029 
-0.0555160194635 0.0993584021926 0.0369082130492 
-0.0531344003975 0.115373820066 0.027954120189 
-0.055881626904 0.121471531689 0.0275733117014 
-0.0500447973609 0.0757268890738 0.0400176793337 
-0.0506922639906 0.0923717096448 0.0356723628938 
-0.0500413328409 0.114399954677 0.0141294710338 
-0.053107637912 0.121493294835 0.0132421646267 
-0.0475610382855 0.0853241682053 0.0315012410283 
-0.0468599013984 0.0957703217864 0.0291294977069 
-0.0478298142552 0.105614945292 0.0157314445823 
-0.04818835482 0.109317317605 0.00895113032311 
-0.0447777584195 0.130256801844 0.00726483296603 
-0.044124186039 0.0732998177409 0.0419598221779 
-0.0405563116074 0.0812120214105 0.0357769802213 
-0.0424404814839 0.0955834239721 0.0165454521775 
-0.0439008995891 0.0970422029495 0.00522335292771 
-0.0379012934864 0.123209618032 0.00671534845605 
-0.0376696698368 0.0902121961117 0.0281763039529 
-0.0362834818661 0.0956143811345 0.0105132935569 
-0.0328794792295 0.086272649467 0.0311438571662 
-0.0327172465622 0.0763236358762 0.0389580056071 
-0.0292190909386 0.0925829857588 0.0187655109912 
-0.0251764301211 0.0762273073196 0.0411051623523 
-0.0257475171238 0.0886240452528 0.0286801513284 
-0.0279416348785 0.0928184911609 0.00468186615035 
-0.0180468857288 0.0877872630954 0.0348843745887 
-0.0263680405915 0.0935757756233 0.0151847722009 
-0.0102102551609 0.0972249284387 0.0225923527032 
-0.0137808406726 0.0971091613173 0.013702545315 
-0.00887989718467 0.0771529227495 0.0443747341633 
-0.00708645768464 0.0889637544751 0.0374056771398 
-0.010093877092 0.0947408676147 0.0287758391351 
-0.00820592511445 0.097501128912 0.00324787874706 
0.0023240619339 0.099488504231 0.00969129428267 
0.00174591480754 0.0694881379604 0.04513188079 
0.00148529210128 0.0811460539699 0.042746398598 
0.00584791973233 0.0964096933603 0.0283462963998 
0.00589676806703 0.00387889007106 -0.00961370021105 
0.00624185986817 0.0539428666234 -0.0346137434244 
0.00695481942967 0.0614516437054 -0.0316953808069 
0.0135682225227 0.00125247286633 -0.022574596107 
0.00930464081466 -0.000778828980401 -0.00589866144583 
0.00766346137971 0.0193912554532 -0.0317725837231 
0.0144446985796 0.0335250943899 -0.0320345312357 
0.00808423850685 0.0413655415177 -0.0353029929101 
0.0119308829308 0.0646739155054 -0.024459855631 
0.0184050481766 -0.00020935307839 -0.012711647898 
0.0147620942444 0.0132471164688 -0.0268377326429 
0.014287381433 0.0553297549486 -0.0313992835581 
0.0217450615019 0.0292309112847 -0.028474278748 
0.0259658433497 0.0385307893157 -0.0265024490654 
0.0192570947111 0.0594178885221 -0.0256350822747 
0.0228030253202 0.0111698079854 -0.0213393345475 
0.022459808737 0.0206527318805 -0.0279466938227 
0.0279464870691 0.00984178483486 -0.00758220162243 
0.0211101863533 -0.000737493799534 0.00043678417569 
0.0292262099683 0.0154645880684 -0.0191326662898 
0.0284340810031 0.0304921083152 -0.0225847698748 
0.025789257139 0.0515245720744 -0.0254181083292 
0.0353572703898 0.0037181484513 -0.00104736723006 
0.0328456386924 0.0187783520669 -0.0133937587962 
0.0327543057501 0.0431683845818 -0.0208796076477 
0.0287578385323 0.0627553015947 -0.0205777902156 
0.0392386168242 0.0242424160242 -0.00878250505775 
0.0349173545837 0.033392727375 -0.0177195854485 
0.0382740758359 0.0519178509712 -0.0175183229148 
0.0367782711983 0.0417522192001 -0.0153530240059 
0.0465513132513 0.00829879660159 0.00152032217011 
0.044929150492 0.0161884631962 -0.00803191959858 
0.0408434122801 0.0350175611675 -0.0114563144743 
0.0441558994353 0.0420834608376 -0.00530286552384 
0.0421175807714 0.0547831431031 -0.011502629146 
0.0445191413164 0.0554110892117 -0.00593826547265 
0.0429051071405 0.0299320090562 -0.00338675267994 
0.0506111234426 0.0274469759315 -0.00568577600643 
0.0517003312707 0.0188338272274 -0.00454575615004 
0.0563102401793 0.0160104651004 0.00271179806441 
0.0586259178817 0.0267119836062 -6.64888284518e-05 
0.0542826019228 0.035748526454 0.000726746977307 
0.00676107080653 0.0794077962637 -0.0212315935642 
0.0176517702639 0.0686750635505 -0.0235932692885 
0.0120868263766 0.088317528367 -0.0137370182201 
0.0206443350762 0.0726579427719 -0.0187046471983 
0.0212020836771 0.0826643705368 -0.0140565894544 
0.0238481257111 0.0882533192635 -0.00558851193637 
0.0203288272023 0.0937576591969 0.00142128695734 
0.0273869801313 0.0683936923742 -0.0187550578266 
0.0267014056444 0.0774230509996 -0.0137615213171 
0.0366896167397 0.069864936173 -0.0114707667381 
0.0320437215269 0.0789754092693 -0.00874487869442 
0.0336608402431 0.0824571177363 -0.00158382230438 
0.0419449992478 0.0670591518283 -0.00392582872882 
0.00105650757905 -0.000765763339587 0.018756704405 
0.00782519206405 0.00399682344869 0.0312907658517 
0.0104740327224 0.0316019244492 0.056088745594 
0.0104708680883 0.0539657995105 0.0571071766317 
0.00852743815631 -0.00110946933273 0.0130254831165 
0.0198127031326 -8.32387522678e-05 0.0347202718258 
0.0148203065619 0.000262639514403 0.0446611568332 
0.0175681896508 0.0134758884087 0.0451730787754 
0.00900457706302 0.041527569294 0.0573986545205 
0.00789300072938 0.065596498549 0.0502004548907 
0.0217789877206 0.000824664253742 0.00917041953653 
0.0114603592083 0.0187957659364 0.0530644990504 
0.0166695397347 0.0278693120927 0.0514289177954 
0.0241077784449 -0.000367630651454 0.021153839305 
0.0208333097398 0.0218869317323 0.0488876700401 
0.0222296733409 0.037184625864 0.0505242049694 
0.0189212150872 0.0536094196141 0.0512627400458 
0.0182158686221 0.0452925413847 0.0544537231326 
0.0248984452337 0.0604717582464 0.0479667410254 
0.0229894611984 0.00550877861679 0.0420723892748 
0.0272566024214 0.0358080081642 0.044843185693 
0.0288694538176 0.027875714004 0.0443176589906 
0.0248495768756 0.0472561232746 0.0504436567426 
0.0352377444506 0.000826605188195 0.00833814963698 
0.0310800988227 0.00481294468045 0.0281869471073 
0.0280082970858 0.00793934334069 0.0351728610694 
0.0321180783212 0.0186979379505 0.03825693205 
0.0307299718261 0.0458811819553 0.0449921824038 
0.0355124920607 0.00149161880836 0.0170697122812 
0.0360783487558 0.0269100293517 0.0394826941192 
0.0357324928045 0.0411402992904 0.0406896322966 
0.0342798791826 0.0552702024579 0.043060913682 
0.0397580750287 0.00585801247507 0.0256942510605 
0.0360464155674 0.0180391892791 0.0331935249269 
0.0430454984307 0.0501554310322 0.03152429685 
0.0380098558962 0.0608341991901 0.0371821150184 
0.0432130992413 0.0147051885724 0.0341983474791 
0.0438746288419 0.0325467661023 0.0283191911876 
0.0470077358186 0.0261708050966 0.033209361136 
0.0454889126122 0.060171328485 0.022774240002 
0.0493147112429 0.00813252478838 0.00741241872311 
0.051157772541 0.00915482547134 0.0170869529247 
0.0500829927623 0.0113882767037 0.0249672774225 
0.0477489233017 0.0392495132983 0.00522874621674 
0.0534132942557 0.0386276990175 0.0247075073421 
0.0472930818796 0.0448086708784 0.0206505786628 
0.0479493886232 0.041122186929 0.0104031004012 
0.0472680963576 0.0508633926511 0.00442885840312 
0.0470125004649 0.0584893003106 0.00837751664221 
0.0460573621094 0.0619193725288 0.00360563024879 
0.0419879332185 0.0730592980981 0.0130977164954 
0.0546270385385 0.0229901485145 0.0298001039773 
0.0580564215779 0.0153967794031 0.0113367792219 
0.0586900003254 0.0182492379099 0.0219493918121 
0.0590716600418 0.0394442975521 0.00946264062077 
0.0620345138013 0.0240481197834 0.0130809443071 
0.0618143416941 0.0337463878095 0.0188474543393 
0.0620367303491 0.0312584973872 0.00871564261615 
0.0124241793528 0.0873352959752 0.0368757136166 
0.0100583117455 0.0987832695246 0.0193066094071 
0.0165353566408 0.0707991123199 0.0467140339315 
0.0143584208563 0.0944939181209 0.02834610641 
0.0128126256168 0.0981209725142 0.00644695432857 
0.0190474539995 0.0767407491803 0.0405394583941 
0.0214573219419 0.087951593101 0.0330879092216 
0.0292070694268 0.0783888921142 0.035526253283 
0.0284296032041 0.0870084241033 0.0276558175683 
0.0239529591054 0.0928727388382 0.0189571604133 
0.0313491895795 0.0693397894502 0.0389573164284 
0.0319061726332 0.0865429863334 0.00746574485675 
0.0385445430875 0.0752054899931 0.0262846685946 
0.0330325476825 0.0847635269165 0.021164977923 
0.0417370982468 0.072892151773 0.00390254589729 
CELLS 1000 4000
3 0 1 2 
3 2 1 3 
3 4 3 5 
3 2 3 4 
3 4 5 6 
3 7 4 6 
3 8 9 1 
3 0 8 1 
3 10 8 0 
3 11 12 13 
3 12 14 15 
3 11 16 12 
3 16 17 12 
3 18 19 14 
3 12 20 14 
3 12 17 20 
3 1 9 21 
3 18 14 20 
3 18 20 22 
3 16 23 17 
3 23 24 17 
3 18 22 25 
3 11 26 16 
3 11 27 26 
3 28 27 11 
3 29 27 28 
3 30 31 29 
3 29 31 27 
3 32 33 34 
3 35 32 34 
3 35 36 32 
3 30 37 31 
3 30 38 37 
3 37 39 40 
3 37 38 39 
3 39 41 42 
3 39 42 40 
3 39 33 41 
3 33 39 38 
3 38 34 33 
3 43 35 34 
3 36 44 41 
3 33 36 41 
3 36 33 32 
3 26 23 16 
3 27 23 26 
3 37 40 45 
3 46 37 45 
3 40 42 47 
3 40 47 45 
3 48 47 42 
3 48 42 49 
3 50 43 51 
3 52 49 42 
3 41 52 42 
3 53 54 27 
3 31 53 27 
3 37 53 31 
3 37 46 53 
3 45 55 46 
3 55 45 47 
3 56 47 48 
3 55 47 56 
3 43 50 57 
3 58 36 35 
3 44 36 59 
3 60 59 36 
3 58 60 36 
3 61 60 58 
3 62 60 63 
3 44 52 41 
3 58 43 64 
3 43 58 35 
3 59 52 44 
3 58 64 61 
3 60 62 59 
3 60 61 63 
3 64 43 65 
3 64 65 61 
3 62 63 66 
3 63 61 67 
3 65 43 57 
3 59 68 49 
3 59 49 52 
3 61 69 67 
3 61 65 69 
3 62 68 59 
3 62 66 68 
3 63 67 66 
3 20 70 71 
3 17 70 20 
3 24 70 17 
3 72 22 73 
3 72 25 22 
3 20 71 22 
3 24 74 70 
3 21 75 1 
3 21 76 75 
3 72 77 76 
3 73 77 72 
3 73 22 71 
3 75 3 1 
3 76 77 75 
3 73 78 79 
3 73 79 77 
3 71 78 73 
3 78 71 80 
3 71 70 80 
3 3 81 5 
3 75 81 3 
3 82 81 75 
3 77 82 75 
3 78 83 79 
3 70 84 80 
3 74 84 70 
3 85 84 74 
3 81 86 5 
3 82 86 81 
3 79 82 77 
3 78 87 88 
3 80 87 78 
3 80 84 87 
3 84 89 90 
3 86 6 5 
3 4 91 2 
3 2 92 93 
3 91 92 2 
3 82 94 86 
3 79 94 82 
3 83 94 79 
3 78 88 83 
3 84 90 87 
3 86 95 6 
3 94 96 86 
3 83 97 94 
3 83 88 97 
3 88 87 97 
3 90 98 87 
3 89 99 90 
3 100 92 91 
3 96 95 86 
3 97 96 94 
3 87 101 97 
3 97 101 102 
3 98 101 87 
3 90 103 98 
3 104 103 90 
3 99 104 90 
3 91 4 7 
3 95 105 6 
3 96 105 95 
3 96 102 105 
3 97 102 96 
3 98 106 101 
3 103 106 98 
3 105 107 6 
3 7 6 107 
3 101 108 102 
3 101 106 108 
3 103 109 106 
3 104 109 103 
3 110 111 104 
3 99 110 104 
3 112 91 7 
3 113 100 91 
3 102 114 105 
3 102 108 114 
3 104 115 109 
3 104 111 115 
3 112 113 91 
3 108 116 114 
3 106 116 108 
3 106 117 116 
3 109 117 106 
3 109 118 117 
3 114 119 105 
3 117 118 116 
3 109 120 118 
3 115 120 109 
3 115 121 120 
3 111 121 115 
3 111 122 121 
3 7 107 123 
3 105 123 107 
3 105 119 124 
3 105 124 123 
3 116 125 126 
3 125 116 118 
3 127 7 123 
3 128 119 114 
3 116 128 114 
3 126 128 116 
3 27 54 23 
3 46 129 53 
3 130 46 55 
3 130 131 129 
3 130 129 46 
3 57 130 55 
3 130 50 131 
3 57 50 130 
3 50 132 131 
3 56 133 55 
3 133 57 55 
3 24 85 74 
3 23 85 24 
3 23 54 85 
3 129 134 53 
3 135 131 132 
3 136 134 129 
3 129 131 136 
3 131 135 137 
3 54 138 85 
3 53 139 54 
3 134 139 53 
3 134 140 139 
3 135 141 137 
3 85 89 84 
3 138 89 85 
3 54 142 138 
3 54 139 142 
3 137 143 131 
3 139 140 142 
3 134 144 140 
3 145 143 137 
3 141 145 137 
3 138 146 89 
3 142 146 138 
3 141 147 145 
3 89 146 99 
3 144 142 140 
3 144 148 142 
3 149 143 145 
3 150 143 149 
3 145 151 149 
3 147 151 145 
3 148 152 142 
3 153 150 149 
3 146 154 99 
3 146 155 154 
3 152 155 146 
3 142 152 146 
3 154 110 99 
3 148 156 152 
3 157 153 149 
3 155 110 154 
3 155 158 110 
3 152 158 155 
3 152 156 158 
3 157 149 151 
3 159 153 157 
3 111 110 122 
3 110 160 122 
3 158 161 110 
3 161 160 110 
3 158 162 161 
3 156 163 158 
3 158 163 162 
3 156 164 163 
3 161 165 160 
3 161 162 165 
3 163 166 162 
3 164 167 163 
3 164 168 167 
3 169 133 56 
3 69 65 133 
3 65 57 133 
3 68 48 49 
3 68 169 48 
3 169 56 48 
3 169 69 133 
3 68 66 169 
3 66 67 169 
3 169 67 69 
3 170 141 135 
3 170 171 141 
3 172 171 170 
3 173 172 170 
3 171 147 141 
3 171 174 147 
3 172 174 171 
3 175 176 177 
3 173 176 172 
3 174 178 147 
3 174 172 179 
3 179 178 174 
3 172 180 179 
3 147 178 151 
3 179 181 178 
3 182 176 175 
3 176 180 172 
3 178 183 151 
3 184 177 159 
3 184 175 177 
3 175 184 182 
3 181 185 178 
3 182 180 176 
3 183 157 151 
3 177 153 159 
3 185 183 178 
3 181 186 185 
3 187 182 184 
3 179 188 181 
3 180 182 187 
3 179 180 188 
3 185 186 183 
3 181 188 186 
3 180 189 188 
3 187 189 180 
3 159 157 183 
3 159 183 186 
3 186 189 159 
3 189 184 159 
3 184 189 187 
3 188 189 186 
3 190 13 191 
3 190 192 13 
3 193 194 195 
3 13 12 15 
3 194 13 15 
3 196 191 194 
3 194 193 196 
3 197 196 193 
3 194 191 13 
3 198 191 196 
3 192 11 13 
3 193 195 199 
3 195 194 15 
3 197 193 199 
3 198 196 197 
3 200 195 19 
3 200 199 195 
3 199 200 201 
3 15 19 195 
3 15 14 19 
3 197 199 202 
3 203 197 202 
3 204 197 203 
3 198 197 204 
3 205 198 204 
3 206 198 205 
3 207 201 200 
3 201 202 199 
3 9 208 21 
3 208 9 209 
3 210 19 25 
3 210 200 19 
3 207 200 210 
3 19 18 25 
3 211 201 207 
3 202 201 211 
3 203 202 212 
3 213 205 204 
3 209 9 8 
3 214 215 216 
3 208 217 21 
3 217 76 21 
3 215 218 216 
3 207 210 219 
3 212 202 211 
3 220 204 203 
3 213 204 220 
3 221 222 223 
3 224 225 226 
3 227 221 223 
3 225 227 223 
3 227 228 221 
3 229 227 225 
3 229 225 224 
3 230 228 227 
3 229 230 227 
3 231 190 191 
3 232 192 190 
3 231 232 190 
3 223 222 232 
3 233 223 232 
3 226 233 234 
3 226 234 235 
3 221 29 222 
3 225 233 226 
3 225 223 233 
3 224 226 235 
3 228 29 221 
3 224 236 229 
3 237 238 228 
3 230 237 228 
3 239 230 229 
3 240 239 229 
3 240 229 236 
3 241 237 230 
3 239 241 230 
3 242 239 240 
3 243 244 241 
3 239 243 241 
3 242 243 239 
3 244 243 245 
3 198 231 191 
3 246 231 198 
3 232 28 192 
3 246 232 231 
3 232 222 28 
3 233 232 246 
3 235 234 247 
3 248 224 235 
3 238 29 228 
3 236 224 248 
3 238 30 29 
3 248 240 236 
3 249 240 248 
3 237 30 238 
3 244 237 241 
3 249 242 240 
3 245 34 244 
3 243 250 245 
3 250 243 242 
3 28 11 192 
3 246 234 233 
3 222 29 28 
3 251 235 247 
3 248 235 251 
3 252 249 248 
3 244 38 30 
3 244 30 237 
3 244 34 38 
3 242 253 250 
3 198 206 246 
3 254 247 234 
3 254 234 246 
3 255 251 247 
3 248 251 252 
3 242 249 253 
3 253 245 250 
3 254 246 206 
3 256 251 255 
3 252 251 256 
3 252 257 249 
3 34 51 43 
3 245 51 34 
3 253 258 245 
3 259 254 206 
3 260 206 205 
3 260 259 206 
3 259 247 254 
3 261 247 259 
3 261 255 247 
3 262 255 261 
3 256 255 262 
3 263 252 256 
3 257 252 263 
3 264 249 257 
3 249 264 253 
3 245 258 51 
3 253 264 258 
3 265 261 259 
3 265 262 261 
3 256 266 263 
3 256 262 266 
3 267 257 263 
3 268 257 267 
3 264 257 268 
3 51 132 50 
3 51 269 132 
3 258 269 51 
3 270 209 8 
3 8 216 270 
3 271 216 8 
3 214 216 271 
3 209 270 208 
3 216 218 270 
3 272 215 214 
3 272 218 215 
3 219 210 25 
3 273 203 212 
3 220 203 273 
3 274 214 275 
3 214 274 272 
3 270 217 208 
3 218 276 270 
3 72 76 217 
3 219 72 217 
3 219 25 72 
3 211 207 277 
3 277 212 211 
3 220 273 278 
3 279 213 220 
3 8 10 280 
3 275 214 271 
3 270 281 217 
3 270 276 281 
3 272 276 218 
3 272 282 276 
3 281 219 217 
3 277 207 219 
3 283 212 277 
3 284 273 283 
3 283 273 212 
3 278 273 284 
3 279 220 278 
3 10 0 285 
3 285 280 10 
3 271 8 280 
3 272 286 282 
3 286 272 274 
3 277 281 276 
3 277 219 281 
3 283 276 282 
3 283 277 276 
3 284 283 287 
3 286 274 275 
3 286 275 288 
3 287 283 282 
3 289 278 284 
3 279 278 289 
3 93 285 0 
3 286 290 282 
3 290 286 288 
3 287 282 290 
3 291 284 287 
3 292 284 291 
3 289 284 292 
3 293 279 289 
3 2 93 0 
3 294 280 295 
3 294 271 280 
3 275 271 294 
3 296 288 275 
3 291 287 290 
3 297 292 298 
3 297 289 292 
3 297 293 289 
3 93 92 295 
3 285 93 295 
3 295 280 285 
3 296 275 299 
3 298 292 291 
3 300 295 92 
3 301 302 295 
3 302 294 295 
3 303 275 294 
3 299 275 303 
3 304 296 299 
3 305 288 296 
3 306 290 288 
3 305 306 288 
3 307 290 306 
3 307 291 290 
3 298 291 307 
3 308 309 298 
3 308 298 310 
3 309 297 298 
3 301 295 300 
3 100 300 92 
3 302 303 294 
3 304 305 296 
3 301 303 302 
3 305 311 306 
3 312 306 311 
3 312 307 306 
3 312 298 307 
3 312 310 298 
3 313 310 312 
3 308 310 313 
3 314 309 308 
3 315 316 309 
3 317 303 301 
3 305 304 311 
3 318 312 311 
3 319 308 313 
3 319 314 308 
3 309 314 315 
3 303 317 320 
3 320 299 303 
3 321 312 318 
3 322 313 312 
3 323 300 100 
3 323 301 300 
3 301 324 317 
3 325 299 320 
3 304 299 325 
3 318 311 325 
3 325 311 304 
3 321 322 312 
3 313 322 326 
3 319 313 326 
3 314 319 327 
3 323 100 113 
3 324 301 323 
3 328 321 318 
3 329 321 328 
3 329 322 321 
3 326 322 329 
3 317 324 330 
3 320 317 330 
3 323 113 331 
3 318 325 332 
3 333 319 326 
3 327 319 333 
3 213 260 205 
3 266 262 265 
3 263 266 267 
3 334 267 335 
3 334 268 267 
3 334 264 268 
3 269 135 132 
3 336 259 260 
3 336 265 259 
3 336 266 265 
3 337 267 266 
3 267 337 335 
3 338 334 335 
3 338 339 334 
3 339 264 334 
3 258 339 269 
3 264 339 258 
3 340 260 279 
3 260 213 279 
3 340 336 260 
3 341 266 336 
3 337 266 341 
3 342 338 335 
3 343 338 342 
3 343 339 338 
3 339 343 269 
3 269 170 135 
3 344 336 340 
3 341 336 344 
3 345 341 344 
3 337 345 335 
3 337 341 345 
3 346 335 345 
3 347 136 131 
3 347 131 143 
3 342 346 347 
3 136 347 346 
3 342 335 346 
3 348 343 342 
3 348 269 343 
3 293 340 279 
3 340 293 349 
3 350 344 340 
3 351 345 344 
3 136 352 134 
3 345 351 346 
3 136 351 352 
3 136 346 351 
3 347 353 342 
3 353 348 342 
3 177 348 353 
3 350 340 349 
3 354 351 344 
3 352 144 134 
3 351 355 352 
3 347 143 150 
3 353 347 150 
3 349 293 350 
3 350 356 354 
3 350 354 344 
3 352 355 144 
3 357 350 293 
3 356 350 357 
3 354 358 351 
3 359 293 297 
3 359 357 293 
3 358 356 360 
3 358 354 356 
3 144 361 148 
3 355 361 144 
3 355 358 361 
3 351 358 355 
3 353 153 177 
3 153 353 150 
3 316 297 309 
3 316 359 297 
3 359 362 360 
3 359 356 357 
3 356 359 360 
3 358 363 361 
3 358 360 363 
3 359 316 315 
3 361 156 148 
3 360 364 363 
3 363 365 361 
3 363 364 365 
3 315 366 359 
3 359 367 362 
3 360 368 364 
3 362 368 360 
3 361 369 156 
3 314 327 315 
3 367 359 366 
3 362 367 368 
3 369 164 156 
3 365 369 361 
3 365 370 369 
3 364 370 365 
3 315 327 371 
3 371 366 315 
3 366 371 372 
3 372 367 366 
3 367 373 368 
3 369 168 164 
3 368 373 364 
3 173 170 269 
3 348 173 269 
3 176 173 348 
3 176 348 177 
3 127 112 7 
3 374 113 112 
3 120 375 118 
3 121 375 120 
3 122 376 121 
3 127 123 377 
3 374 112 127 
3 331 374 378 
3 331 113 374 
3 119 379 124 
3 119 128 379 
3 126 380 128 
3 125 380 126 
3 125 381 380 
3 118 381 125 
3 375 381 118 
3 376 375 121 
3 122 382 376 
3 374 127 378 
3 383 378 127 
3 124 377 123 
3 124 384 377 
3 379 384 124 
3 375 376 385 
3 383 127 377 
3 128 386 379 
3 128 380 386 
3 381 387 380 
3 375 385 381 
3 376 388 385 
3 382 388 376 
3 383 377 389 
3 384 389 377 
3 384 390 389 
3 390 384 379 
3 386 390 379 
3 380 387 386 
3 381 385 387 
3 383 391 392 
3 391 383 389 
3 390 393 389 
3 386 387 394 
3 385 395 387 
3 388 395 385 
3 396 392 391 
3 393 391 389 
3 390 397 393 
3 386 394 390 
3 395 398 387 
3 388 399 395 
3 397 391 393 
3 397 390 394 
3 394 400 397 
3 387 401 394 
3 398 401 387 
3 395 402 398 
3 399 402 395 
3 400 391 397 
3 401 400 394 
3 398 403 401 
3 402 403 398 
3 404 396 405 
3 391 405 396 
3 391 400 405 
3 401 406 400 
3 403 406 401 
3 407 406 403 
3 403 402 407 
3 399 408 402 
3 399 409 408 
3 410 411 400 
3 400 411 405 
3 410 400 406 
3 406 407 410 
3 402 408 407 
3 408 409 407 
3 411 412 405 
3 405 413 404 
3 405 412 413 
3 411 414 412 
3 411 415 414 
3 160 382 122 
3 160 165 382 
3 162 166 416 
3 167 166 163 
3 162 416 165 
3 382 165 417 
3 167 418 166 
3 165 419 417 
3 416 419 165 
3 166 420 416 
3 418 420 166 
3 382 417 388 
3 416 420 419 
3 418 421 420 
3 167 421 418 
3 167 422 421 
3 417 399 388 
3 419 423 417 
3 420 424 419 
3 423 399 417 
3 419 424 423 
3 420 421 424 
3 423 425 399 
3 424 425 423 
3 424 426 425 
3 421 426 424 
3 421 427 426 
3 426 427 425 
3 425 409 399 
3 425 428 409 
3 427 428 425 
3 331 429 323 
3 324 323 430 
3 328 318 332 
3 431 329 328 
3 333 326 432 
3 429 331 433 
3 430 429 434 
3 320 330 435 
3 430 323 429 
3 324 430 330 
3 436 325 320 
3 332 325 436 
3 431 328 332 
3 437 329 431 
3 432 326 329 
3 327 333 438 
3 392 331 378 
3 439 331 392 
3 433 331 439 
3 434 429 433 
3 430 434 330 
3 436 320 435 
3 440 332 436 
3 441 332 440 
3 441 431 332 
3 432 329 437 
3 438 333 432 
3 392 378 383 
3 434 433 442 
3 435 330 434 
3 436 443 440 
3 441 440 443 
3 444 437 431 
3 444 431 441 
3 445 437 446 
3 432 437 445 
3 447 438 432 
3 433 439 442 
3 446 437 444 
3 432 445 447 
3 442 439 392 
3 448 435 434 
3 436 435 448 
3 449 441 443 
3 449 443 450 
3 451 446 444 
3 451 445 446 
3 447 445 451 
3 452 442 392 
3 453 434 442 
3 454 434 453 
3 448 434 454 
3 454 436 448 
3 443 436 455 
3 444 441 449 
3 456 444 449 
3 456 451 444 
3 452 392 396 
3 457 442 452 
3 455 436 454 
3 450 443 455 
3 458 450 455 
3 459 456 449 
3 456 447 451 
3 447 456 460 
3 457 453 442 
3 461 453 457 
3 455 454 453 
3 462 455 453 
3 459 450 458 
3 459 449 450 
3 460 456 459 
3 463 460 459 
3 464 460 463 
3 464 447 460 
3 461 465 453 
3 465 462 453 
3 462 458 455 
3 466 458 462 
3 459 458 466 
3 452 396 404 
3 467 466 462 
3 463 459 466 
3 468 464 463 
3 469 452 404 
3 470 452 469 
3 470 457 452 
3 461 457 470 
3 471 465 461 
3 465 467 462 
3 407 472 410 
3 473 466 467 
3 474 466 475 
3 474 463 466 
3 409 472 407 
3 409 476 472 
3 476 475 472 
3 476 477 475 
3 477 474 475 
3 477 468 474 
3 468 463 474 
3 478 476 409 
3 478 477 476 
3 479 468 477 
3 471 461 470 
3 413 469 404 
3 480 465 471 
3 480 467 465 
3 472 415 410 
3 410 415 411 
3 472 475 415 
3 473 475 466 
3 481 469 413 
3 481 470 469 
3 471 470 482 
3 482 480 471 
3 414 413 412 
3 473 467 480 
3 475 483 415 
3 473 483 475 
3 481 482 470 
3 413 484 481 
3 484 482 481 
3 414 484 413 
3 484 485 482 
3 485 480 482 
3 415 483 414 
3 483 486 414 
3 485 473 480 
3 483 485 486 
3 483 473 485 
3 484 414 486 
3 486 485 484 
3 327 438 371 
3 487 367 372 
3 373 367 487 
3 370 168 369 
3 364 488 370 
3 373 488 364 
3 487 372 371 
3 438 489 371 
3 373 487 490 
3 168 491 167 
3 370 491 168 
3 488 491 370 
3 489 438 447 
3 492 371 489 
3 492 487 371 
3 491 422 167 
3 373 490 488 
3 493 487 492 
3 493 490 487 
3 493 492 494 
3 490 495 496 
3 493 495 490 
3 491 496 422 
3 488 496 491 
3 490 496 488 
3 447 497 489 
3 489 497 492 
3 494 492 497 
3 493 494 495 
3 496 498 422 
3 497 447 464 
3 494 497 499 
3 422 427 421 
3 498 427 422 
3 496 500 498 
3 495 500 496 
3 427 498 501 
3 498 479 501 
3 498 500 479 
3 500 499 479 
3 500 495 499 
3 495 494 499 
3 499 464 468 
3 497 464 499 
3 427 501 428 
3 428 478 409 
3 428 501 478 
3 501 479 478 
3 479 499 468 
3 478 479 477 
CELL_TYPES 1000
5
5
5
5
5
5
5
5
5
5
5
5
5
5
5
5
5
5
5
5
5
5
5
5
5
5
5
5
5
5
5
5
5
5
5
5
5
5
5
5
5
5
5
5
5
5
5
5
5
5
5
5
5
5
5
5
5
5
5
5
5
5
5
5
5
5
5
5
5
5
5
5
5
5
5
5
5
5
5
5
5
5
5
5
5
5
5
5
5
5
5
5
5
5
5
5
5
5
5
5
5
5
5
5
5
5
5
5
5
5
5
5
5
5
5
5
5
5
5
5
5
5
5
5
5
5
5
5
5
5
5
5
5
5
5
5
5
5
5
5
5
5
5
5
5
5
5
5
5
5
5
5
5
5
5
5
5
5
5
5
5
5
5
5
5
5
5
5
5
5
5
5
5
5
5
5
5
5
5
5
5
5
5
5
5
5
5
5
5
5
5
5
5
5
5
5
5
5
5
5
5
5
5
5
5
5
5
5
5
5
5
5
5
5
5
5
5
5
5
5
5
5
5
5
5
5
5
5
5
5
5
5
5
5
5
5
5
5
5
5
5
5
5
5
5
5
5
5
5
5
5
5
5
5
5
5
5
5
5
5
5
5
5
5
5
5
5
5
5
5
5
5
5
5
5
5
5
5
5
5
5
5
5
5
5
5
5
5
5
5
5
5
5
5
5
5
5
5
5
5
5
5
5
5
5
5
5
5
5
5
5
5
5
5
5
5
5
5
5
5
5
5
5
5
5
5
5
5
5
5
5
5
5
5
5
5
5
5
5
5
5
5
5
5
5
5
5
5
5
5
5
5
5
5
5
5
5
5
5
5
5
5
5
5
5
5
5
5
5
5
5
5
5
5
5
5
5
5
5
5
5
5
5
5
5
5
5
5
5
5
5
5
5
5
5
5
5
5
5
5
5
5
5
5
5
5
5
5
5
5
5
5
5
5
5
5
5
5
5
5
5
5
5
5
5
5
5
5
5
5
5
5
5
5
5
5
5
5
5
5
5
5
5
5
5
5
5
5
5
5
5
5
5
5
5
5
5
5
5
5
5
5
5
5
5
5
5
5
5
5
5
5
5
5
5
5
5
5
5
5
5
5
5
5
5
5
5
5
5
5
5
5
5
5
5
5
5
5
5
5
5
5
5
5
5
5
5
5
5
5
5
5
5
5
5
5
5
5
5
5
5
5
5
5
5
5
5
5
5
5
5
5
5
5
5
5
5
5
5
5
5
5
5
5
5
5
5
5
5
5
5
5
5
5
5
5
5
5
5
5
5
5
5
5
5
5
5
5
5
5
5
5
5
5
5
5
5
5
5
5
5
5
5
5
5
5
5
5
5
5
5
5
5
5
5
5
5
5
5
5
5
5
5
5
5
5
5
5
5
5
5
5
5
5
5
5
5
5
5
5
5
5
5
5
5
5
5
5
5
5
5
5
5
5
5
5
5
5
5
5
5
5
5
5
5
5
5
5
5
5
5
5
5
5
5
5
5
5
5
5
5
5
5
5
5
5
5
5
5
5
5
5
5
5
5
5
5
5
5
5
5
5
5
5
5
5
5
5
5
5
5
5
5
5
5
5
5
5
5
5
5
5
5
5
5
5
5
5
5
5
5
5
5
5
5
5
5
5
5
5
5
5
5
5
5
5
5
5
5
5
5
5
5
5
5
5
5
5
5
5
5
5
5
5
5
5
5
5
5
5
5
5
5
5
5
5
5
5
5
5
5
5
5
5
5
5
5
5
5
5
5
5
5
5
5
5
5
5
5
5
5
5
5
5
5
5
5
5
5
5
5
5
5
5
5
5
5
5
5
5
5
5
5
5
5
5
5
5
5
5
5
5
5
5
5
5
5
5
5
5
5
5
5
5
5
5
5
5
5
5
5
5
5
5
5
5
5
5
5
5
5
5
5
5
5
5
5
5
5
5
5
5
5
5
5
5
5
5
5
5
5
5
5
5
5
5
5
5
5
5
5
5
5
5
5
5
5
5
5
5
5
5
5
5
5
5
5
5
5
5
5
5
5
5
5
5
5
5
5
5
5
5
5
5
5
5
5
5
5
5
5
5
5
5
5
5
5
5
5
5
5
5
5
5
5
5
5
5
5
5
5
5
5
5
5
5
5
5
5
5
5
5
5
5
5
5
5
5
5
5
5
5
5
5
5
5
5
5
5
5
5
5
5
5
5
5
5
5
5
5
5
5
5
5
5
5
5
5
5
5
5
5
5
5
5
5
5
5
5
5
5
5
5
5
5
5
5
5
5
5
POINT_DATA 502
VECTORS displacement double
0 0 0
0 0 0
0 0 0
0 0 0
0 0 0
0 0 0
0 0 0
0 0 0
0 0 0
0 0 0
0 0 0
6.92158925312e-05 3.82826563911e-06 -3.6771358132e-05
-3.89136741528e-05 -2.53392774162e-05 -3.55986255712e-05
-4.43738657894e-06 3.22522173027e-05 -4.35662834032e-05
-0.000104494973482 -6.5694726014e-05 -3.33390925175e-05
-8.10805850873e-05 -3.32629471304e-05 -3.77209906626e-05
4.63310395479e-05 -6.62470654706e-05 -3.7359684167e-05
-5.09057132931e-05 -0.000104775397084 -3.88601998715e-05
-0.000130439277349 -0.000122044434255 -3.33141555315e-05
-0.000134032154283 -9.66249708713e-05 -3.58883703107e-05
-0.000111943752356 -0.000153251226796 -3.96883568214e-05
-5.47209862806e-05 -2.05205194831e-05 -2.51785373766e-05
-0.000143288906052 -0.000187170905751 -3.6697924927e-05
0.000111823701994 -0.000164329037357 -4.49987898501e-05
3.50166912603e-05 -0.000185458289569 -5.40248021571e-05
-0.000143251685086 -0.000156970266066 -2.90704179413e-05
0.000111625781179 -7.03411440882e-05 -3.61105155073e-05
0.000241431045565 -8.70409319654e-05 -3.3177365768e-05
0.000213313859807 1.56376396053e-05 -3.98612054009e-05
0.000358536484717 6.65111637131e-05 -4.30934724941e-05
0.000503239650652 -1.09259858267e-06 -3.78516532638e-05
0.000431931438238 -8.33485051517e-05 -3.27392125111e-05
0.000753994274493 -2.76664205451e-05 -3.54209307639e-05
0.000731178437686 -6.5643443048e-05 -3.20118652627e-05
0.000713326777571 -4.17184865645e-05 -3.36632231642e-05
0.000802808646776 -4.96003258148e-05 -3.28221991501e-05
0.000871261084163 -1.17802994724e-05 -3.70665880088e-05
0.000564771499953 -0.000107282334932 -2.90616897602e-05
0.000644812144099 -3.55764753621e-05 -3.50689307339e-05
0.000693525034886 -5.1916073677e-05 -3.38203835547e-05
0.000647814387339 -9.77311036783e-05 -3.02418833255e-05
0.000783465536015 -8.87366188329e-05 -2.99587882591e-05
0.000702124036385 -8.79620115013e-05 -3.07568472974e-05
0.000804236307531 -0.000144420687766 -2.46914194123e-05
0.000851732052131 -7.13447401022e-05 -3.1265842407e-05
0.000616096592921 -0.000154110533109 -2.554891132e-05
0.000566630396551 -0.000176677081411 -2.36159311249e-05
0.000677563300622 -0.000155716678597 -2.46209814715e-05
0.000793596903994 -0.000202466318788 -1.88334307922e-05
0.000836130520413 -0.000149297498907 -2.35024643326e-05
0.000726498132255 -0.00021615163755 -1.93243231101e-05
0.000741564943851 -0.000115691009996 -2.74709263699e-05
0.000865062077823 -0.000116066713029 -2.65617315446e-05
0.000332183971976 -0.000221200844556 -2.5419188884e-05
0.000223419135738 -0.000242660801364 -3.78518551082e-05
0.000691139690818 -0.000227512151939 -1.78724236293e-05
0.000808492623442 -0.000222024176453 -1.6554541139e-05
0.000772559181515 -0.000250656505664 -1.49493996231e-05
0.000923543455753 -4.91214099164e-05 -3.3316784287e-05
0.000953039023477 -0.000105786950753 -2.68332199375e-05
0.00100790870992 -8.39886361747e-06 -3.6006818199e-05
0.000997166136031 -0.00010958744237 -2.63074352377e-05
0.00103768735446 -9.76145784617e-05 -2.70543336834e-05
0.00109456318915 -0.00011233326149 -2.51005238638e-05
0.000923114644165 -0.000112225585575 -2.67180787548e-05
0.000894730778609 -0.000196756809249 -1.87959847229e-05
0.00107291981646 -0.000236330278986 -1.30989166257e-05
0.00100801328803 -0.000193502731935 -1.77138036799e-05
0.000978749398658 -0.000188821593099 -1.84795614173e-05
0.000942781040268 -0.000206155714837 -1.71065322575e-05
-8.29314864037e-05 -0.000252149659073 -7.2867294833e-05
-0.000128807118979 -0.000226367822345 -5.65318385704e-05
-0.000126293665517 -0.000151589071414 -3.4365607383e-05
-0.000135104248576 -0.000219227328628 -5.46032046857e-05
1.54390465192e-06 -0.000242511635314 -7.00039557722e-05
-5.28984184216e-05 -4.48177188132e-05 -4.38007067051e-05
-7.99725844494e-05 -6.2191554689e-05 -3.37943821564e-05
-0.000103683733789 -0.0001251608733 -5.04390641822e-05
-0.000125482108447 -0.000293832306873 -9.18936644028e-05
-0.000111601512115 -0.000177969293018 -6.86691186054e-05
-0.000111936969947 -0.000290166400785 -8.93488012807e-05
-5.36745902579e-05 -3.14362536083e-05 -3.85718589363e-05
-6.68553685165e-05 -6.43709152711e-05 -4.47825791748e-05
-0.000104530236818 -0.000240237180139 -8.46769735758e-05
-4.24242031734e-05 -0.000348125263851 -0.000110972038952
5.64912473219e-05 -0.000276905233189 -7.22451962075e-05
-6.05919228467e-05 -1.27844079184e-05 -5.759528871e-05
-6.82906676687e-05 -0.000366940754156 -0.000154248520293
-9.21685875524e-05 -0.000296423454517 -0.000122940933416
5.69106995936e-05 -0.00039957288569 -0.00010530329251
-8.77132134164e-06 -0.000422710181573 -0.000175544007843
0 0 0
0 0 0
0 0 0
-5.75506314967e-05 -0.000115266385048 -6.19607302203e-05
-4.71843654399e-05 -2.8502349393e-05 -7.71059326311e-05
-5.52590495822e-05 -0.000127065085303 -8.5638188655e-05
-7.67550276116e-05 -0.000295359441972 -0.000143478029145
-1.49788897905e-05 -0.000401874834221 -0.000207668186683
4.86452517749e-05 -0.000494837820726 -0.000170440469709
0 0 0
-4.95130552477e-05 -0.00038094497511 -0.000192617798451
-7.20673320826e-05 -0.000329886525832 -0.000154856940813
2.07026179464e-05 -0.000418646483207 -0.000204708391318
7.21594633461e-05 -0.000432524241153 -0.00019338672356
-5.53844125072e-05 -0.000197882728736 -0.000127771830757
-4.08997652107e-05 -0.000433859643944 -0.000215448948073
0 0 0
-5.83285375408e-05 -0.000398423683663 -0.000196533160776
1.13380290284e-05 -0.000470918613915 -0.000225859465825
0.000128913567143 -0.000668540299113 -0.000199999365762
0.000126443053874 -0.000542321267838 -0.000194132957424
0 0 0
0 0 0
-5.12831825747e-05 -0.000373730335066 -0.0001916770606
8.23677411403e-05 -0.000522250407793 -0.000219195729714
-4.61531724756e-05 -0.000434617220893 -0.000226490758179
-2.15880891943e-05 -0.000479455319207 -0.000243487620697
3.3574127078e-05 -0.000560161334571 -0.000272359897256
-2.4834186022e-05 -0.000365943876511 -0.000162860818891
8.22574432238e-05 -0.000604730064283 -0.000270989129585
0.000162111253037 -0.000656150625961 -0.000237289532043
0.000202469849253 -0.00070563906033 -0.00019854113416
0 0 0
-3.59325434253e-06 -0.000232350799096 -0.000126137947588
2.8150261325e-05 -0.000536017556755 -0.000270151353274
1.12530343547e-05 -0.000499494076259 -0.000260632213906
0 0 0
1.42592559207e-05 -0.000457160388748 -0.00024265325356
0.00053282125805 -0.000271202264479 -1.71877030428e-05
0.000614478635096 -0.000239079768761 -1.84937164024e-05
0.000609144818884 -0.00030512637009 -1.35246354515e-05
0.000730377131895 -0.000201622183079 -2.07304381349e-05
0.000817704533454 -0.000247918362642 -1.38251154195e-05
0.000436303384943 -0.0003540200292 -8.14503584916e-06
0.000735983196696 -0.0002848549285 -1.34741862806e-05
0.000523592220666 -0.000387350408013 -7.67592243934e-06
0.000678397755688 -0.000403412336099 -4.53801765235e-06
0.000126251610701 -0.000348970381856 -7.50083808614e-05
0.000320547725852 -0.000346227830599 -2.39163060844e-05
0.00038327005433 -0.000423789428676 -1.03047431699e-05
0.00077619848993 -0.000418799779517 -1.82244482465e-06
0.000262809465231 -0.000444955260178 -4.78038164714e-05
0.000635128145743 -0.000460586998526 -9.24057769958e-07
0.000432280411788 -0.000546104820771 -4.43631872516e-07
0.000736853126381 -0.000492351544756 3.70822167049e-06
0.000125403445864 -0.000488546518323 -0.000113004604789
0.000846694180163 -0.000544666768724 7.63979972109e-06
0.00038090106837 -0.000723786350113 -2.09345458246e-05
0.000723961026638 -0.000641031763785 1.73308393364e-05
0.00067847063081 -0.00055859673294 9.07776568767e-06
0.000777125301685 -0.00061073208533 1.43156201593e-05
0.000296123291288 -0.000729517773858 -8.14243450551e-05
0.000781413756351 -0.000722832260543 1.76292064918e-05
0.000120306187717 -0.000588674037699 -0.000151627134612
0.000224591776649 -0.000756139141089 -0.000138997302008
0.000416065296578 -0.00120327284686 -5.31660631434e-05
0.000778263161821 -0.00079102672448 2.4716833942e-05
0.000300700573326 -0.000984131852006 -0.000151934183719
0.000858514935501 -0.000833622103994 2.29185838774e-05
0.000212305018352 -0.000876605790186 -0.000227601750289
0.000256510667837 -0.000961994110314 -0.000236169228488
0.000317215360596 -0.00108831085652 -0.000240043095377
0.000406217316951 -0.00128596444904 -0.000189677286333
0.0005 -0.0023 0
0.000323345238857 -0.00110165052617 -0.000270413332359
0.000452215310357 -0.00132164784316 -0.000188858682012
0.0005 -0.0023 0
0.0005 -0.0023 0
0.000922856924053 -0.000238667013037 -1.38414162243e-05
0.000840468604201 -0.000347136592785 -7.44861946823e-06
0.000854486174334 -0.000412662167032 -2.35956707851e-06
0.000976381092603 -0.000501357593177 1.91336674462e-06
0.000897334845029 -0.000410552629142 -3.69901198932e-06
0.000922483454546 -0.000516913528149 4.09314374411e-06
0.000891208125975 -0.000628065884235 1.01488621706e-05
0.00102850046023 -0.000648200305696 9.4623539433e-06
0.000814227471 -0.000529236452536 6.28181413815e-06
0.000891186231095 -0.000638197258221 1.28866021129e-05
0.0010345202923 -0.000649922631214 1.05245371547e-05
0.00112480149164 -0.000719822081614 1.39391675829e-05
0.00099277305514 -0.00068131928146 1.35870918086e-05
0.00103382777039 -0.000747763779255 1.69959362987e-05
0.000833268322199 -0.000773075133985 2.35554503858e-05
0.000925819623319 -0.000757602372048 1.84669338059e-05
0.000910585171296 -0.000719286233273 1.80472827073e-05
0.000957065718246 -0.000828946714364 2.43876170116e-05
0.00101396668549 -0.00079703632665 1.98829288213e-05
0.00106140261672 -0.000743478701777 1.62907590485e-05
0.00104062458947 -0.000846797415466 2.37909441957e-05
7.39556663274e-05 5.61280765508e-05 -5.0804672479e-05
1.86327122555e-05 4.6696170941e-05 -5.58178888549e-05
9.3860154017e-05 4.49945989163e-05 -4.3542280019e-05
-6.54361348113e-05 5.45876236289e-06 -5.13071538932e-05
-2.96158757628e-05 1.59380529772e-05 -4.49223111166e-05
-9.06546763676e-05 -2.66165450562e-05 -4.03180892845e-05
-2.78274999396e-05 1.03906174844e-05 -5.56155931158e-05
-7.68900923695e-05 -2.66812548712e-05 -5.60530210475e-05
4.58018073103e-05 5.47583240237e-07 -5.31471319405e-05
-0.000121366062897 -5.31098908945e-05 -4.79904668296e-05
-0.000131801679831 -8.20872126502e-05 -4.11673869986e-05
-0.000141114714263 -9.40945453964e-05 -4.87387490345e-05
-0.000142285487749 -9.93540442669e-05 -5.07781683423e-05
-0.000140750649561 -0.000128135327951 -4.44387036059e-05
-8.46187597433e-05 -9.49213106526e-05 -4.5377772619e-05
-1.47077635595e-05 -0.00010678691402 -3.67478692915e-05
7.44633815205e-05 -8.21202530774e-05 -3.91742350915e-05
-0.000156432352947 -0.000138301652801 -4.49440099502e-05
-5.77447592498e-05 -1.01139124203e-05 -4.28718034352e-06
0 0 0
-0.00014761544923 -0.000133273376222 -3.6595055747e-05
-0.000160097409448 -0.000160127586486 -4.18710743882e-05
-0.00016902701534 -0.000188160556048 -3.69471627147e-05
-5.51993999994e-05 -0.000188707482353 -1.23043032277e-05
0 0 0
-4.83853993376e-05 -3.42826740003e-05 1.91935284822e-05
0 0 0
-7.36949995827e-05 -4.17354371153e-05 -9.45710270909e-06
-6.41348801859e-05 -1.37715891522e-05 1.74330207573e-05
-0.00010920071483 -0.000157148693453 -2.79526956874e-05
-0.000115497295872 -0.000182487038827 -2.001072087e-05
0.000338206799389 0.000135974019499 -5.098873849e-05
0.000265506783606 0.000115025571036 -4.8959298399e-05
0.00025514272091 0.00013864591604 -5.32974690122e-05
0.000297522296934 0.000138701498182 -5.54042129332e-05
0.000319907829052 0.000132601797417 -5.47112101545e-05
0.000226073763844 0.000127720815561 -5.38315698028e-05
0.000364276789184 0.000153894698332 -5.5193114707e-05
0.000444872954117 0.000121277427929 -4.92278434684e-05
0.000412524878309 0.000119389961009 -5.36614264905e-05
0.000487317720931 0.000114823492692 -5.07129111453e-05
0.000112301163462 4.73328191809e-05 -5.20717492307e-05
0.000185725309941 5.29899984654e-05 -4.62106089089e-05
0.00023385317011 9.80326462308e-05 -5.04878610783e-05
0.000174373801197 7.06940316087e-05 -4.68326695827e-05
0.000220263021968 6.25202287334e-05 -4.7093199295e-05
0.000390324113134 0.000106120402888 -5.25868749699e-05
0.000549998395797 7.71425121277e-05 -4.59829303235e-05
0.000493136555138 8.6427765826e-05 -4.55069942832e-05
0.000539172411525 0.000101964506997 -5.06561527575e-05
0.000507135639788 9.20463854216e-05 -5.07538102864e-05
0.000560032331341 0.000125715404582 -5.15029156949e-05
0.000598616455177 5.25427164643e-05 -4.61836296344e-05
0.000654440801723 0.000121322423374 -5.05482103293e-05
0.000649270885123 8.13314681916e-05 -4.62559621909e-05
0.000729464123598 -1.94683419372e-05 -3.70090031657e-05
0.000172742215445 1.95903403898e-07 -4.41827686319e-05
0.00015824432529 -4.55809512843e-05 -3.65613519476e-05
0.000404468080887 3.46092189641e-05 -4.5271389998e-05
0.000551774720315 -3.28582774545e-05 -3.85915483122e-05
0.000692865742283 4.75623005471e-05 -4.40940655488e-05
0.000360825161652 -1.77299098731e-05 -3.96348910981e-05
0.000447802148108 -5.35339075693e-05 -3.62459878066e-05
0.000685934446291 -5.67643286181e-05 -3.58066378825e-05
0.000136699438653 -8.5844648603e-05 -3.34721510291e-05
0.000241332107034 -8.70765819874e-05 -3.23852695945e-05
0.000341674985631 -0.000132200183837 -2.75501535531e-05
0.000538064739207 -0.000153709800533 -2.67270169008e-05
0.000734057628507 -0.000166931474607 -2.55819299569e-05
0.000166450192868 -0.000182908339186 -2.31528161868e-05
8.33206318597e-05 -0.000216635516492 -7.47816815549e-06
0.000189853704599 -0.000156908522058 -2.59651857624e-05
0.000255366164777 -0.000196126480983 -2.0890476884e-05
0.000403054720408 -0.000170221689436 -2.37693338132e-05
0.000681011581421 -0.000227859577961 -2.0898080818e-05
0.000227743116746 -0.000238235911705 -1.78420065674e-05
0.000322121102892 -0.000247437666261 -1.5190581935e-05
0.000454474086558 -0.000229278046831 -1.93665524033e-05
0.000546132646271 -0.000218958784337 -2.1033812398e-05
0.000740975530472 -0.000264706391731 -1.57887807864e-05
-5.40788688325e-05 -1.02895966201e-05 5.92088638887e-06
0 0 0
-5.55912235365e-05 -1.01348438732e-05 2.98840835898e-05
-0.000162524125076 -0.000225923655206 -1.33487262533e-05
-4.99820797943e-05 -3.43132778787e-05 4.61826254811e-05
0 0 0
-7.91205143112e-05 -6.35260126792e-05 1.03887688406e-05
-0.000129466517642 -0.000185898514259 -1.6352301816e-05
-0.000107629396262 -0.00029186631261 3.21637631224e-05
-3.25919603917e-05 -0.000300527484697 3.09116931055e-05
0 0 0
-7.58558180812e-05 -8.61363883596e-05 -2.29710695644e-06
-8.80262147044e-05 -8.17040086826e-05 3.22791286355e-05
-0.000151507070474 -0.000221432680694 7.70914728653e-06
-0.000152758343921 -0.000289275389154 3.50728684958e-05
0 0 0
-5.47622353857e-05 -3.85774176026e-05 4.83863633042e-05
-0.000149818829552 -0.000237727122104 4.30643442313e-05
-6.87151336215e-05 -6.19293936173e-05 5.49829640711e-05
-8.27141174913e-05 -0.000365851591782 6.9676170365e-05
-8.95110942534e-05 -0.000122991970915 5.32875450609e-05
-0.000142793586169 -0.000249462390921 7.33328031177e-05
-0.000115549263952 -0.000370667686928 8.49349507161e-05
3.97220094328e-05 -0.00043646108941 7.01256049428e-05
0 0 0
0 0 0
-6.20653629437e-05 -5.9854569108e-05 6.50958147303e-05
-5.03803639282e-07 -0.000505185922142 0.000114183269881
-6.39333692716e-05 -0.000447314430445 0.0001357287521
0 0 0
0 0 0
0 0 0
0 0 0
0 0 0
-4.76438380177e-05 -2.31985530687e-05 8.38798528579e-05
-4.08776158319e-05 -2.30863012182e-05 5.83719136473e-05
-6.84941036043e-05 -0.00015603838543 6.0862024137e-05
-7.58567842909e-05 -0.000298540718311 9.60056005197e-05
4.15652846259e-05 -0.000531922457838 0.000205602890308
3.41934816643e-05 -0.00055977477368 0.000168139773285
-3.62679321881e-06 -0.000513808719281 0.000184335807897
-5.24586812664e-05 -0.00019590252873 8.54995665111e-05
-2.91961573547e-05 -0.000440124350401 0.000179301835686
1.41884470877e-05 -0.000559005183125 0.000209820734496
0.000121936239768 -0.000603635489855 0.000185718249752
0.000142681628842 -0.000811746505681 0.000179299950152
8.13974677089e-05 -0.00067709253435 0.000151073924499
0 0 0
-2.90891032242e-05 -0.00043904182038 0.000154551548693
0.000108255756832 -0.000629309756197 0.00021092810402
0 0 0
-7.9872093274e-06 -0.000480999603004 0.000202556082185
6.8786771746e-06 -0.000528790619138 0.000212987980551
0 0 0
0 0 0
-7.62080108323e-06 -0.000208162086162 0.000117594198371
4.54984031028e-05 -0.000615108376242 0.000249928342301
0.000212257480049 -0.000741886992729 0.000182530999099
3.83526391217e-05 -0.0005614667588 0.000235529211723
6.55967985344e-05 -0.000623959895302 0.000252615167498
0 0 0
0 0 0
4.61139317148e-06 -0.000489643988312 0.000164567140023
0.00017702394626 -0.000749164332839 0.000241465976242
0.000609064063809 -0.000277117729392 -1.60826002681e-05
0.000511017316214 -0.000336572426897 -1.16591423767e-05
0.000218934473482 -0.000318074203779 -4.71865296308e-06
0.000433070739795 -0.000304085145521 -1.31474115646e-05
0.000630692918995 -0.000339122716847 -1.08491141145e-05
0.000700722740198 -0.00030770778651 -1.40651993425e-05
0.000142752197353 -0.000332742370095 1.18119996955e-05
0.000352067845389 -0.000358553035248 -6.10324595016e-06
0.000634987716366 -0.000375361663736 -7.20438688518e-06
0.000716785551845 -0.000340108128425 -1.00021458744e-05
0.000271361471612 -0.000391349359134 -4.08939152751e-07
0.000393311718243 -0.000407119614935 -3.53261750427e-06
0.000529812455073 -0.000402357074155 -7.74219423093e-06
0.000579688603507 -0.000391618817618 -6.76506475797e-06
0.000824623976637 -0.000437941915142 -2.23030544751e-06
0.000111198916693 -0.000394486828873 3.71927468354e-05
0.000213160836752 -0.000470559488933 2.33673460684e-05
0.000423460387244 -0.000480710431002 -7.63922431516e-06
0.000453675346336 -0.000456810178994 -4.86660382724e-06
0.000748499249444 -0.00052453410344 4.26449992241e-06
0.000363826754869 -0.000551761869052 -3.95344089241e-06
0.000456367338736 -0.000622634499151 -3.12810518287e-07
0.000291326568916 -0.000638646764854 2.80745516853e-05
0.000150285875631 -0.000586838599245 7.86315219337e-05
0.000414675975919 -0.000823296441813 1.06825529556e-06
0.000141922126771 -0.000743273651313 0.0001316633618
0.000321481718985 -0.000760641478701 5.60759903503e-05
0.000445386775016 -0.000689584078527 -3.42494242129e-06
0.000321884373608 -0.00103607945346 0.00014325630475
0.000474047097248 -0.000830031255083 9.47525980888e-06
0.0005 -0.0023 0
0.0005 -0.0023 0
0.000229984696514 -0.00105888906404 0.000244315018762
0.000418448160638 -0.00125685486498 0.00017996663001
0.0005 -0.0023 0
0.0005 -0.0023 0
0.0005 -0.0023 0
0.000266407835614 -0.00104657967324 0.000231413864558
0.000352935369116 -0.00127326346921 0.000250376122756
0.0005 -0.0023 0
0 0 0
0.000163123788255 -0.000719532877072 -0.000287706396041
0.000225999402822 -0.000775495260026 -0.00025501765154
0 0 0
0 0 0
3.80523366342e-05 -0.000470734699551 -0.000236139522249
0.000123215181115 -0.000648758167038 -0.000284295829303
0.000107419107841 -0.000659062250128 -0.000297968474854
0.00031532769321 -0.00096987522767 -0.000253040504799
0 0 0
5.61866563326e-05 -0.000438357764909 -0.000202692924066
0.000231577181275 -0.000825512184504 -0.000298020712466
0.000160956028921 -0.000653136392325 -0.000266181793001
0.000233095709301 -0.00079241709545 -0.000279115161832
0.000325594359844 -0.000955741482167 -0.000276308895667
0.000103338841151 -0.000506910242191 -0.000173617376348
0.00012614033295 -0.000586091791788 -0.000240354526448
0.000113561294983 -0.000434945021305 -0.000122208351325
0 0 0
0.000140888991227 -0.000591872989544 -0.000185987366612
0.0002121894409 -0.00073931630897 -0.000249564197241
0.000318125350511 -0.000925116885462 -0.000279135449606
0 0 0
0.00020096266894 -0.000627285218449 -0.00017270633561
0.000315217093891 -0.000915750040657 -0.000252496810799
0.000433399646343 -0.00110487235898 -0.000252358282482
0.000311002011728 -0.000709165509824 -0.000142432686841
0.000280253479912 -0.000830639319884 -0.00022490431384
0.000418747429866 -0.00105851163165 -0.000231967116715
0.000343751629103 -0.000930087535919 -0.00021980634509
0.000163398974796 -0.0007243601202 -3.06314831829e-05
0.000313717276336 -0.00073172079702 -9.23411607004e-05
0.000334579447592 -0.000875075900855 -0.000190526580869
0.000404274121405 -0.000994619842004 -0.000154917373976
0.000462409901924 -0.00109765456323 -0.000199473921932
0.000495441597639 -0.00115001500741 -0.000165496808245
0.000360233121197 -0.000773630274389 -0.000107568648475
0.000396459628586 -0.000774145678313 -5.40811924028e-05
0.000318081814234 -0.000782651866617 -4.89318511012e-05
0.000277241501567 -0.00081117734148 -1.74510698573e-05
0.000378558480382 -0.000846910437561 -2.73161216328e-05
0.000423332771677 -0.000811706695518 -2.44530823095e-05
0.000385638956969 -0.00122452136613 -0.000267329496137
0.000397618793511 -0.00107515125359 -0.000260748440398
0.000510451391963 -0.00140373830886 -0.000106676281169
0.000447056011008 -0.00124320031094 -0.00024864219093
0.000497454424394 -0.00146959575755 -0.000202851732667
0.0005 -0.0023 0
0.0005 -0.0023 0
0.000469468037475 -0.0011751184859 -0.000233971883195
0.00052787646719 -0.00132691197056 -0.00022158587064
0.000551176225795 -0.00128335947206 -0.000187457121282
0.000570787049152 -0.00137087988975 -0.000159872496449
0.000557575452989 -0.00147273156534 -8.19104987188e-05
0.000566854927815 -0.00127641275875 -0.000145286145584
0 0 0
0 0 0
8.68770990658e-05 -0.000633470341196 0.000256266152461
0.000196707758758 -0.000803196427606 0.00027281383214
0 0 0
0 0 0
0 0 0
8.51116908231e-05 -0.000380731015035 0.000174880903531
0.000123998438556 -0.000706919124362 0.000269449589188
0.000288308013486 -0.000929342757917 0.000234337904182
0 0 0
5.43072761162e-05 -0.000529037936397 0.000203797111859
0.000122381213505 -0.000616270911268 0.000241954665781
0 0 0
0.000134579067902 -0.000576971634949 0.000215013954838
0.000194283156945 -0.000791869653471 0.000253537877596
0.000273661103594 -0.000916806600613 0.000267589850147
0.000213493389912 -0.000822278659208 0.000269891971367
0.000378193022918 -0.00106140646516 0.000253445706443
0.000102403085739 -0.000348324658946 0.000106190993164
0.000251612970511 -0.00079199009113 0.000215895422665
0.000233314380276 -0.000696736219118 0.00019530283125
0.000275027368799 -0.000908929203278 0.00025891580849
0 0 0
0 0 0
0.000114591975064 -0.000353921784674 8.60134359037e-05
0.000217255334393 -0.000630290337524 0.000150486358608
0.000324089054709 -0.000964134398285 0.000230502863649
0 0 0
0.000270862777908 -0.000747292989759 0.000164562682709
0.000341181078732 -0.0009286977639 0.000188811506631
0.000415299752312 -0.00109541533193 0.000218768231947
7.38027259468e-05 -0.000542849393674 2.8418847986e-05
0.000277596179365 -0.000598697295192 0.000120673989754
0.000453204586393 -0.00108665423442 0.000132681387386
0.000492565412255 -0.00118687900254 0.000178010968544
0.000280888784135 -0.000721710486525 5.83344797536e-05
0.000375918501341 -0.000809720374105 7.19810431101e-05
0.000410021422825 -0.000742421195074 4.03132344989e-05
0.000547711575115 -0.00122025756345 6.32835857594e-05
0.00016433597673 -0.000731105675388 -1.8154897055e-05
0.000181523726796 -0.000824986839413 4.54175954669e-07
0.000218431768555 -0.000735153272327 6.33061820648e-06
0.000415962485379 -0.000910877555808 -6.11336486261e-05
0.000411346683322 -0.000795295762683 -2.17690344661e-05
0.000456714945375 -0.00103399173171 4.41089997431e-05
0.000410597867558 -0.00089662774489 -3.89578505406e-05
0.000489627433865 -0.00110270468359 -8.81840902352e-05
0.000547296999848 -0.00120074860585 -5.70252061649e-05
0.000556513615954 -0.00123425981059 -9.20781852823e-05
0.000628997929135 -0.00136062341757 -1.07326053551e-06
0.000363573821067 -0.000806675914694 9.14612268883e-06
0.000263162231385 -0.000829196204913 -8.80990918244e-06
0.000300398056584 -0.000839568495722 -6.9994595448e-06
0.00041734398113 -0.00085041923536 -1.82187415583e-05
0.000343600251347 -0.000868997687091 -1.02064461263e-05
0.000401194761508 -0.000855424759281 -1.52608530476e-05
0.000390263535718 -0.000864150361885 -1.44589435491e-05
0.000499359269319 -0.00155098133329 0.000189391728862
0.0005 -0.0023 0
0.000399043621414 -0.0011127149733 0.000224297418653
0.0005 -0.0023 0
0.0005 -0.0023 0
0.000445116875801 -0.00136316042238 0.000231645269966
0.0005 -0.0023 0
0.000561725948721 -0.00144348811279 0.000184657969776
0.0005 -0.0023 0
0.0005 -0.0023 0
0.000508483013418 -0.00130077698006 0.000189318346613
0.0005 -0.0023 0
0.00061812155404 -0.00141422258345 8.64025199894e-05
0.000551580949426 -0.00159319075305 2.7180510748e-05
0.00061632490209 -0.00131623282572 -9.63780354084e-05
VECTORS crack_base_displacement double
0 0 0
0 0 0
0 0 0
0 0 0
0 0 0
0 0 0
0 0 0
0 0 0
0 0 0
0 0 0
0 0 0
0 0 0
0 0 0
0 0 0
0 0 0
0 0 0
0 0 0
0 0 0
0 0 0
0 0 0
0 0 0
0 0 0
0 0 0
0 0 0
0 0 0
0 0 0
0 0 0
0 0 0
0 0 0
0 0 0
0 0 0
0 0 0
0 0 0
0 0 0
0 0 0
0 0 0
0 0 0
0 0 0
0 0 0
0 0 0
0 0 0
0 0 0
0 0 0
0 0 0
0 0 0
0 0 0
0 0 0
0 0 0
0 0 0
0 0 0
0 0 0
0 0 0
0 0 0
0 0 0
0 0 0
0 0 0
0 0 0
0 0 0
0 0 0
0 0 0
0 0 0
0 0 0
0 0 0
0 0 0
0 0 0
0 0 0
0 0 0
0 0 0
0 0 0
0 0 0
0 0 0
0 0 0
0 0 0
0 0 0
0 0 0
0 0 0
0 0 0
0 0 0
0 0 0
0 0 0
0 0 0
0 0 0
0 0 0
0 0 0
0 0 0
0 0 0
0 0 0
0 0 0
0 0 0
0 0 0
0 0 0
0 0 0
0 0 0
0 0 0
0 0 0
0 0 0
0 0 0
0 0 0
0 0 0
0 0 0
0 0 0
0 0 0
0 0 0
0 0 0
0 0 0
0 0 0
0 0 0
0 0 0
0 0 0
0 0 0
0 0 0
0 0 0
0 0 0
0 0 0
0 0 0
0 0 0
0 0 0
0 0 0
0 0 0
0 0 0
0 0 0
0 0 0
0 0 0
0 0 0
0 0 0
0 0 0
0 0 0
0 0 0
0 0 0
0 0 0
0 0 0
0 0 0
0 0 0
0 0 0
0 0 0
0 0 0
0 0 0
0 0 0
0 0 0
0 0 0
0 0 0
0 0 0
0 0 0
0 0 0
0 0 0
0 0 0
0 0 0
0 0 0
0 0 0
0 0 0
0 0 0
0 0 0
0 0 0
0 0 0
0 0 0
0 0 0
0 0 0
0 0 0
0 0 0
0 0 0
0 0 0
0 0 0
0 0 0
0 0 0
0 0 0
0 0 0
0 0 0
0 0 0
0 0 0
0 0 0
0 0 0
0 0 0
0 0 0
0 0 0
0 0 0
0 0 0
0 0 0
0 0 0
0 0 0
0 0 0
0 0 0
0 0 0
0 0 0
0 0 0
0 0 0
0 0 0
0 0 0
0 0 0
0 0 0
0 0 0
0 0 0
0 0 0
0 0 0
0 0 0
0 0 0
0 0 0
0 0 0
0 0 0
0 0 0
0 0 0
0 0 0
0 0 0
0 0 0
0 0 0
0 0 0
0 0 0
0 0 0
0 0 0
0 0 0
0 0 0
0 0 0
0 0 0
0 0 0
0 0 0
0 0 0
0 0 0
0 0 0
0 0 0
0 0 0
0 0 0
0 0 0
0 0 0
0 0 0
0 0 0
0 0 0
0 0 0
0 0 0
0 0 0
0 0 0
0 0 0
0 0 0
0 0 0
0 0 0
0 0 0
0 0 0
0 0 0
0 0 0
0 0 0
0 0 0
0 0 0
0 0 0
0 0 0
0 0 0
0 0 0
0 0 0
0 0 0
0 0 0
0 0 0
0 0 0
0 0 0
0 0 0
0 0 0
0 0 0
0 0 0
0 0 0
0 0 0
0 0 0
0 0 0
0 0 0
0 0 0
0 0 0
0 0 0
0 0 0
0 0 0
0 0 0
0 0 0
0 0 0
0 0 0
0 0 0
0 0 0
0 0 0
0 0 0
0 0 0
0 0 0
0 0 0
0 0 0
0 0 0
0 0 0
0 0 0
0 0 0
0 0 0
0 0 0
0 0 0
0 0 0
0 0 0
0 0 0
0 0 0
0 0 0
0 0 0
0 0 0
0 0 0
0 0 0
0 0 0
0 0 0
0 0 0
0 0 0
0 0 0
0 0 0
0 0 0
0 0 0
0 0 0
0 0 0
0 0 0
0 0 0
0 0 0
0 0 0
0 0 0
0 0 0
0 0 0
0 0 0
0 0 0
0 0 0
0 0 0
0 0 0
0 0 0
0 0 0
0 0 0
0 0 0
0 0 0
0 0 0
0 0 0
0 0 0
0 0 0
0 0 0
0 0 0
0 0 0
0 0 0
0 0 0
0 0 0
0 0 0
0 0 0
0 0 0
0 0 0
0 0 0
0 0 0
0 0 0
0 0 0
0 0 0
0 0 0
0 0 0
0 0 0
0 0 0
0 0 0
0 0 0
0 0 0
0 0 0
0 0 0
0 0 0
0 0 0
0 0 0
0 0 0
0 0 0
0 0 0
0 0 0
0 0 0
0 0 0
0 0 0
0 0 0
0 0 0
0 0 0
0 0 0
0 0 0
0 0 0
0 0 0
0 0 0
0 0 0
0 0 0
0 0 0
0 0 0
0 0 0
0 0 0
0 0 0
0 0 0
0 0 0
0 0 0
0 0 0
0 0 0
0 0 0
0 0 0
0 0 0
0 0 0
0 0 0
0 0 0
0 0 0
0 0 0
0 0 0
0 0 0
0 0 0
0 0 0
0 0 0
0 0 0
0 0 0
0 0 0
0 0 0
0 0 0
0 0 0
0 0 0
0 0 0
0 0 0
0 0 0
0 0 0
0 0 0
0 0 0
0 0 0
0 0 0
0 0 0
0 0 0
0 0 0
0 0 0
0 0 0
0 0 0
0 0 0
0 0 0
0 0 0
0 0 0
0 0 0
0 0 0
0 0 0
0 0 0
0 0 0
0 0 0
0 0 0
0 0 0
0 0 0
0 0 0
0 0 0
0 0 0
0 0 0
0 0 0
0 0 0
0 0 0
0 0 0
0 0 0
0 0 0
0 0 0
0 0 0
0 0 0
0 0 0
0 0 0
0 0 0
0 0 0
0 0 0
0 0 0
0 0 0
0 0 0
0 0 0
0 0 0
0 0 0
0 0 0
0 0 0
0 0 0
0 0 0
0 0 0
0 0 0
0 0 0
0 0 0
0 0 0
0 0 0
0 0 0
0 0 0
0 0 0
0 0 0
0 0 0
0 0 0
0 0 0
0 0 0
0 0 0
0 0 0
0 0 0
0 0 0
0 0 0
0 0 0
0 0 0
0 0 0
0 0 0
0 0 0
0 0 0
0 0 0
0 0 0
0 0 0
0 0 0
0 0 0
0 0 0
0 0 0
0 0 0
0 0 0
0 0 0
0 0 0
0 0 0
0 0 0
0 0 0
0 0 0
0 0 0
0 0 0
0 0 0
0 0 0
0 0 0
0 0 0
0 0 0
0 0 0
0 0 0
0 0 0
VECTORS crack_half_opening_displacement double
0 0 0
0 0 0
0 0 0
0 0 0
0 0 0
0 0 0
0 0 0
0 0 0
0 0 0
0 0 0
0 0 0
0 0 0
0 0 0
0 0 0
0 0 0
0 0 0
0 0 0
0 0 0
0 0 0
0 0 0
0 0 0
0 0 0
0 0 0
0 0 0
0 0 0
0 0 0
0 0 0
0 0 0
0 0 0
0 0 0
0 0 0
0 0 0
0 0 0
0 0 0
0 0 0
0 0 0
0 0 0
0 0 0
0 0 0
0 0 0
0 0 0
0 0 0
0 0 0
0 0 0
0 0 0
0 0 0
0 0 0
0 0 0
0 0 0
0 0 0
0 0 0
0 0 0
0 0 0
0 0 0
0 0 0
0 0 0
0 0 0
0 0 0
0 0 0
0 0 0
0 0 0
0 0 0
0 0 0
0 0 0
0 0 0
0 0 0
0 0 0
0 0 0
0 0 0
0 0 0
0 0 0
0 0 0
0 0 0
0 0 0
0 0 0
0 0 0
0 0 0
0 0 0
0 0 0
0 0 0
0 0 0
0 0 0
0 0 0
0 0 0
0 0 0
0 0 0
0 0 0
0 0 0
0 0 0
0 0 0
0 0 0
0 0 0
0 0 0
0 0 0
0 0 0
0 0 0
0 0 0
0 0 0
0 0 0
0 0 0
0 0 0
0 0 0
0 0 0
0 0 0
0 0 0
0 0 0
0 0 0
0 0 0
0 0 0
0 0 0
0 0 0
0 0 0
0 0 0
0 0 0
0 0 0
0 0 0
0 0 0
0 0 0
0 0 0
0 0 0
0 0 0
0 0 0
0 0 0
0 0 0
0 0 0
0 0 0
0 0 0
0 0 0
0 0 0
0 0 0
0 0 0
0 0 0
0 0 0
0 0 0
0 0 0
0 0 0
0 0 0
0 0 0
0 0 0
0 0 0
0 0 0
0 0 0
0 0 0
0 0 0
0 0 0
0 0 0
0 0 0
0 0 0
0 0 0
0 0 0
0 0 0
0 0 0
0 0 0
0 0 0
0 0 0
0 0 0
0 0 0
0 0 0
0 0 0
0 0 0
0 0 0
0 0 0
0 0 0
0 0 0
0 0 0
0 0 0
0 0 0
0 0 0
0 0 0
0 0 0
0 0 0
0 0 0
0 0 0
0 0 0
0 0 0
0 0 0
0 0 0
0 0 0
0 0 0
0 0 0
0 0 0
0 0 0
0 0 0
0 0 0
0 0 0
0 0 0
0 0 0
0 0 0
0 0 0
0 0 0
0 0 0
0 0 0
0 0 0
0 0 0
0 0 0
0 0 0
0 0 0
0 0 0
0 0 0
0 0 0
0 0 0
0 0 0
0 0 0
0 0 0
0 0 0
0 0 0
0 0 0
0 0 0
0 0 0
0 0 0
0 0 0
0 0 0
0 0 0
0 0 0
0 0 0
0 0 0
0 0 0
0 0 0
0 0 0
0 0 0
0 0 0
0 0 0
0 0 0
0 0 0
0 0 0
0 0 0
0 0 0
0 0 0
0 0 0
0 0 0
0 0 0
0 0 0
0 0 0
0 0 0
0 0 0
0 0 0
0 0 0
0 0 0
0 0 0
0 0 0
0 0 0
0 0 0
0 0 0
0 0 0
0 0 0
0 0 0
0 0 0
0 0 0
0 0 0
0 0 0
0 0 0
0 0 0
0 0 0
0 0 0
0 0 0
0 0 0
0 0 0
0 0 0
0 0 0
0 0 0
0 0 0
0 0 0
0 0 0
0 0 0
0 0 0
0 0 0
0 0 0
0 0 0
0 0 0
0 0 0
0 0 0
0 0 0
0 0 0
0 0 0
0 0 0
0 0 0
0 0 0
0 0 0
0 0 0
0 0 0
0 0 0
0 0 0
0 0 0
0 0 0
0 0 0
0 0 0
0 0 0
0 0 0
0 0 0
0 0 0
0 0 0
0 0 0
0 0 0
0 0 0
0 0 0
0 0 0
0 0 0
0 0 0
0 0 0
0 0 0
0 0 0
0 0 0
0 0 0
0 0 0
0 0 0
0 0 0
0 0 0
0 0 0
0 0 0
0 0 0
0 0 0
0 0 0
0 0 0
0 0 0
0 0 0
0 0 0
0 0 0
0 0 0
0 0 0
0 0 0
0 0 0
0 0 0
0 0 0
0 0 0
0 0 0
0 0 0
0 0 0
0 0 0
0 0 0
0 0 0
0 0 0
0 0 0
0 0 0
0 0 0
0 0 0
0 0 0
0 0 0
0 0 0
0 0 0
0 0 0
0 0 0
0 0 0
0 0 0
0 0 0
0 0 0
0 0 0
0 0 0
0 0 0
0 0 0
0 0 0
0 0 0
0 0 0
0 0 0
0 0 0
0 0 0
0 0 0
0 0 0
0 0 0
0 0 0
0 0 0
0 0 0
0 0 0
0 0 0
0 0 0
0 0 0
0 0 0
0 0 0
0 0 0
0 0 0
0 0 0
0 0 0
0 0 0
0 0 0
0 0 0
0 0 0
0 0 0
0 0 0
0 0 0
0 0 0
0 0 0
0 0 0
0 0 0
0 0 0
0 0 0
0 0 0
0 0 0
0 0 0
0 0 0
0 0 0
0 0 0
0 0 0
0 0 0
0 0 0
0 0 0
0 0 0
0 0 0
0 0 0
0 0 0
0 0 0
0 0 0
0 0 0
0 0 0
0 0 0
0 0 0
0 0 0
0 0 0
0 0 0
0 0 0
0 0 0
0 0 0
0 0 0
0 0 0
0 0 0
0 0 0
0 0 0
0 0 0
0 0 0
0 0 0
0 0 0
0 0 0
0 0 0
0 0 0
0 0 0
0 0 0
0 0 0
0 0 0
0 0 0
0 0 0
0 0 0
0 0 0
0 0 0
0 0 0
0 0 0
0 0 0
0 0 0
0 0 0
0 0 0
0 0 0
0 0 0
0 0 0
0 0 0
0 0 0
0 0 0
0 0 0
0 0 0
0 0 0
0 0 0
0 0 0
0 0 0
0 0 0
0 0 0
0 0 0
0 0 0
0 0 0
0 0 0
0 0 0
0 0 0
0 0 0
0 0 0
0 0 0
0 0 0
0 0 0
0 0 0
0 0 0
0 0 0
0 0 0
0 0 0
0 0 0
0 0 0
0 0 0
0 0 0
0 0 0
0 0 0
0 0 0
0 0 0
0 0 0
0 0 0
0 0 0
0 0 0
0 0 0
0 0 0
0 0 0
0 0 0
0 0 0
0 0 0
0 0 0
0 0 0
0 0 0
0 0 0
0 0 0
0 0 0
0 0 0
0 0 0
0 0 0
0 0 0
0 0 0
0 0 0
0 0 0
0 0 0
0 0 0
0 0 0
0 0 0
VECTORS surface_only_displacement double
0 0 0
0 0 0
0 0 0
0 0 0
0 0 0
0 0 0
0 0 0
0 0 0
0 0 0
0 0 0
0 0 0
6.92158925312e-05 3.82826563911e-06 -3.6771358132e-05
-3.89136741528e-05 -2.53392774162e-05 -3.55986255712e-05
-4.43738657894e-06 3.22522173027e-05 -4.35662834032e-05
-0.000104494973482 -6.5694726014e-05 -3.33390925175e-05
-8.10805850873e-05 -3.32629471304e-05 -3.77209906626e-05
4.63310395479e-05 -6.62470654706e-05 -3.7359684167e-05
-5.09057132931e-05 -0.000104775397084 -3.88601998715e-05
-0.000130439277349 -0.000122044434255 -3.33141555315e-05
-0.000134032154283 -9.66249708713e-05 -3.58883703107e-05
-0.000111943752356 -0.000153251226796 -3.96883568214e-05
-5.47209862806e-05 -2.05205194831e-05 -2.51785373766e-05
-0.000143288906052 -0.000187170905751 -3.6697924927e-05
0.000111823701994 -0.000164329037357 -4.49987898501e-05
3.50166912603e-05 -0.000185458289569 -5.40248021571e-05
-0.000143251685086 -0.000156970266066 -2.90704179413e-05
0.000111625781179 -7.03411440882e-05 -3.61105155073e-05
0.000241431045565 -8.70409319654e-05 -3.3177365768e-05
0.000213313859807 1.56376396053e-05 -3.98612054009e-05
0.000358536484717 6.65111637131e-05 -4.30934724941e-05
0.000503239650652 -1.09259858267e-06 -3.78516532638e-05
0.000431931438238 -8.33485051517e-05 -3.27392125111e-05
0.000753994274493 -2.76664205451e-05 -3.54209307639e-05
0.000731178437686 -6.5643443048e-05 -3.20118652627e-05
0.000713326777571 -4.17184865645e-05 -3.36632231642e-05
0.000802808646776 -4.96003258148e-05 -3.28221991501e-05
0.000871261084163 -1.17802994724e-05 -3.70665880088e-05
0.000564771499953 -0.000107282334932 -2.90616897602e-05
0.000644812144099 -3.55764753621e-05 -3.50689307339e-05
0.000693525034886 -5.1916073677e-05 -3.38203835547e-05
0.000647814387339 -9.77311036783e-05 -3.02418833255e-05
0.000783465536015 -8.87366188329e-05 -2.99587882591e-05
0.000702124036385 -8.79620115013e-05 -3.07568472974e-05
0.000804236307531 -0.000144420687766 -2.46914194123e-05
0.000851732052131 -7.13447401022e-05 -3.1265842407e-05
0.000616096592921 -0.000154110533109 -2.554891132e-05
0.000566630396551 -0.000176677081411 -2.36159311249e-05
0.000677563300622 -0.000155716678597 -2.46209814715e-05
0.000793596903994 -0.000202466318788 -1.88334307922e-05
0.000836130520413 -0.000149297498907 -2.35024643326e-05
0.000726498132255 -0.00021615163755 -1.93243231101e-05
0.000741564943851 -0.000115691009996 -2.74709263699e-05
0.000865062077823 -0.000116066713029 -2.65617315446e-05
0.000332183971976 -0.000221200844556 -2.5419188884e-05
0.000223419135738 -0.000242660801364 -3.78518551082e-05
0.000691139690818 -0.000227512151939 -1.78724236293e-05
0.000808492623442 -0.000222024176453 -1.6554541139e-05
0.000772559181515 -0.000250656505664 -1.49493996231e-05
0.000923543455753 -4.91214099164e-05 -3.3316784287e-05
0.000953039023477 -0.000105786950753 -2.68332199375e-05
0.00100790870992 -8.39886361747e-06 -3.6006818199e-05
0.000997166136031 -0.00010958744237 -2.63074352377e-05
0.00103768735446 -9.76145784617e-05 -2.70543336834e-05
0.00109456318915 -0.00011233326149 -2.51005238638e-05
0.000923114644165 -0.000112225585575 -2.67180787548e-05
0.000894730778609 -0.000196756809249 -1.87959847229e-05
0.00107291981646 -0.000236330278986 -1.30989166257e-05
0.00100801328803 -0.000193502731935 -1.77138036799e-05
0.000978749398658 -0.000188821593099 -1.84795614173e-05
0.000942781040268 -0.000206155714837 -1.71065322575e-05
-8.29314864037e-05 -0.000252149659073 -7.2867294833e-05
-0.000128807118979 -0.000226367822345 -5.65318385704e-05
-0.000126293665517 -0.000151589071414 -3.4365607383e-05
-0.000135104248576 -0.000219227328628 -5.46032046857e-05
1.54390465192e-06 -0.000242511635314 -7.00039557722e-05
-5.28984184216e-05 -4.48177188132e-05 -4.38007067051e-05
-7.99725844494e-05 -6.2191554689e-05 -3.37943821564e-05
-0.000103683733789 -0.0001251608733 -5.04390641822e-05
-0.000125482108447 -0.000293832306873 -9.18936644028e-05
-0.000111601512115 -0.000177969293018 -6.86691186054e-05
-0.000111936969947 -0.000290166400785 -8.93488012807e-05
-5.36745902579e-05 -3.14362536083e-05 -3.85718589363e-05
-6.68553685165e-05 -6.43709152711e-05 -4.47825791748e-05
-0.000104530236818 -0.000240237180139 -8.46769735758e-05
-4.24242031734e-05 -0.000348125263851 -0.000110972038952
5.64912473219e-05 -0.000276905233189 -7.22451962075e-05
-6.05919228467e-05 -1.27844079184e-05 -5.759528871e-05
-6.82906676687e-05 -0.000366940754156 -0.000154248520293
-9.21685875524e-05 -0.000296423454517 -0.000122940933416
5.69106995936e-05 -0.00039957288569 -0.00010530329251
-8.77132134164e-06 -0.000422710181573 -0.000175544007843
0 0 0
0 0 0
0 0 0
-5.75506314967e-05 -0.000115266385048 -6.19607302203e-05
-4.71843654399e-05 -2.8502349393e-05 -7.71059326311e-05
-5.52590495822e-05 -0.000127065085303 -8.5638188655e-05
-7.67550276116e-05 -0.000295359441972 -0.000143478029145
-1.49788897905e-05 -0.000401874834221 -0.000207668186683
4.86452517749e-05 -0.000494837820726 -0.000170440469709
0 0 0
-4.95130552477e-05 -0.00038094497511 -0.000192617798451
-7.20673320826e-05 -0.000329886525832 -0.000154856940813
2.07026179464e-05 -0.000418646483207 -0.000204708391318
7.21594633461e-05 -0.000432524241153 -0.00019338672356
-5.53844125072e-05 -0.000197882728736 -0.000127771830757
-4.08997652107e-05 -0.000433859643944 -0.000215448948073
0 0 0
-5.83285375408e-05 -0.000398423683663 -0.000196533160776
1.13380290284e-05 -0.000470918613915 -0.000225859465825
0.000128913567143 -0.000668540299113 -0.000199999365762
0.000126443053874 -0.000542321267838 -0.000194132957424
0 0 0
0 0 0
-5.12831825747e-05 -0.000373730335066 -0.0001916770606
8.23677411403e-05 -0.000522250407793 -0.000219195729714
-4.61531724756e-05 -0.000434617220893 -0.000226490758179
-2.15880891943e-05 -0.000479455319207 -0.000243487620697
3.3574127078e-05 -0.000560161334571 -0.000272359897256
-2.4834186022e-05 -0.000365943876511 -0.000162860818891
8.22574432238e-05 -0.000604730064283 -0.000270989129585
0.000162111253037 -0.000656150625961 -0.000237289532043
0.000202469849253 -0.00070563906033 -0.00019854113416
0 0 0
-3.59325434253e-06 -0.000232350799096 -0.000126137947588
2.8150261325e-05 -0.000536017556755 -0.000270151353274
1.12530343547e-05 -0.000499494076259 -0.000260632213906
0 0 0
1.42592559207e-05 -0.000457160388748 -0.00024265325356
0.00053282125805 -0.000271202264479 -1.71877030428e-05
0.000614478635096 -0.000239079768761 -1.84937164024e-05
0.000609144818884 -0.00030512637009 -1.35246354515e-05
0.000730377131895 -0.000201622183079 -2.07304381349e-05
0.000817704533454 -0.000247918362642 -1.38251154195e-05
0.000436303384943 -0.0003540200292 -8.14503584916e-06
0.000735983196696 -0.0002848549285 -1.34741862806e-05
0.000523592220666 -0.000387350408013 -7.67592243934e-06
0.000678397755688 -0.000403412336099 -4.53801765235e-06
0.000126251610701 -0.000348970381856 -7.50083808614e-05
0.000320547725852 -0.000346227830599 -2.39163060844e-05
0.00038327005433 -0.000423789428676 -1.03047431699e-05
0.00077619848993 -0.000418799779517 -1.82244482465e-06
0.000262809465231 -0.000444955260178 -4.78038164714e-05
0.000635128145743 -0.000460586998526 -9.24057769958e-07
0.000432280411788 -0.000546104820771 -4.43631872516e-07
0.000736853126381 -0.000492351544756 3.70822167049e-06
0.000125403445864 -0.000488546518323 -0.000113004604789
0.000846694180163 -0.000544666768724 7.63979972109e-06
0.00038090106837 -0.000723786350113 -2.09345458246e-05
0.000723961026638 -0.000641031763785 1.73308393364e-05
0.00067847063081 -0.00055859673294 9.07776568767e-06
0.000777125301685 -0.00061073208533 1.43156201593e-05
0.000296123291288 -0.000729517773858 -8.14243450551e-05
0.000781413756351 -0.000722832260543 1.76292064918e-05
0.000120306187717 -0.000588674037699 -0.000151627134612
0.000224591776649 -0.000756139141089 -0.000138997302008
0.000416065296578 -0.00120327284686 -5.31660631434e-05
0.000778263161821 -0.00079102672448 2.4716833942e-05
0.000300700573326 -0.000984131852006 -0.000151934183719
0.000858514935501 -0.000833622103994 2.29185838774e-05
0.000212305018352 -0.000876605790186 -0.000227601750289
0.000256510667837 -0.000961994110314 -0.000236169228488
0.000317215360596 -0.00108831085652 -0.000240043095377
0.000406217316951 -0.00128596444904 -0.000189677286333
0.0005 -0.0023 0
0.000323345238857 -0.00110165052617 -0.000270413332359
0.000452215310357 -0.00132164784316 -0.000188858682012
0.0005 -0.0023 0
0.0005 -0.0023 0
0.000922856924053 -0.000238667013037 -1.38414162243e-05
0.000840468604201 -0.000347136592785 -7.44861946823e-06
0.000854486174334 -0.000412662167032 -2.35956707851e-06
0.000976381092603 -0.000501357593177 1.91336674462e-06
0.000897334845029 -0.000410552629142 -3.69901198932e-06
0.000922483454546 -0.000516913528149 4.09314374411e-06
0.000891208125975 -0.000628065884235 1.01488621706e-05
0.00102850046023 -0.000648200305696 9.4623539433e-06
0.000814227471 -0.000529236452536 6.28181413815e-06
0.000891186231095 -0.000638197258221 1.28866021129e-05
0.0010345202923 -0.000649922631214 1.05245371547e-05
0.00112480149164 -0.000719822081614 1.39391675829e-05
0.00099277305514 -0.00068131928146 1.35870918086e-05
0.00103382777039 -0.000747763779255 1.69959362987e-05
0.000833268322199 -0.000773075133985 2.35554503858e-05
0.000925819623319 -0.000757602372048 1.84669338059e-05
0.000910585171296 -0.000719286233273 1.80472827073e-05
0.000957065718246 -0.000828946714364 2.43876170116e-05
0.00101396668549 -0.00079703632665 1.98829288213e-05
0.00106140261672 -0.000743478701777 1.62907590485e-05
0.00104062458947 -0.000846797415466 2.37909441957e-05
7.39556663274e-05 5.61280765508e-05 -5.0804672479e-05
1.86327122555e-05 4.6696170941e-05 -5.58178888549e-05
9.3860154017e-05 4.49945989163e-05 -4.3542280019e-05
-6.54361348113e-05 5.45876236289e-06 -5.13071538932e-05
-2.96158757628e-05 1.59380529772e-05 -4.49223111166e-05
-9.06546763676e-05 -2.66165450562e-05 -4.03180892845e-05
-2.78274999396e-05 1.03906174844e-05 -5.56155931158e-05
-7.68900923695e-05 -2.66812548712e-05 -5.60530210475e-05
4.58018073103e-05 5.47583240237e-07 -5.31471319405e-05
-0.000121366062897 -5.31098908945e-05 -4.79904668296e-05
-0.000131801679831 -8.20872126502e-05 -4.11673869986e-05
-0.000141114714263 -9.40945453964e-05 -4.87387490345e-05
-0.000142285487749 -9.93540442669e-05 -5.07781683423e-05
-0.000140750649561 -0.000128135327951 -4.44387036059e-05
-8.46187597433e-05 -9.49213106526e-05 -4.5377772619e-05
-1.47077635595e-05 -0.00010678691402 -3.67478692915e-05
7.44633815205e-05 -8.21202530774e-05 -3.91742350915e-05
-0.000156432352947 -0.000138301652801 -4.49440099502e-05
-5.77447592498e-05 -1.01139124203e-05 -4.28718034352e-06
0 0 0
-0.00014761544923 -0.000133273376222 -3.6595055747e-05
-0.000160097409448 -0.000160127586486 -4.18710743882e-05
-0.00016902701534 -0.000188160556048 -3.69471627147e-05
-5.51993999994e-05 -0.000188707482353 -1.23043032277e-05
0 0 0
-4.83853993376e-05 -3.42826740003e-05 1.91935284822e-05
0 0 0
-7.36949995827e-05 -4.17354371153e-05 -9.45710270909e-06
-6.41348801859e-05 -1.37715891522e-05 1.74330207573e-05
-0.00010920071483 -0.000157148693453 -2.79526956874e-05
-0.000115497295872 -0.000182487038827 -2.001072087e-05
0.000338206799389 0.000135974019499 -5.098873849e-05
0.000265506783606 0.000115025571036 -4.8959298399e-05
0.00025514272091 0.00013864591604 -5.32974690122e-05
0.000297522296934 0.000138701498182 -5.54042129332e-05
0.000319907829052 0.000132601797417 -5.47112101545e-05
0.000226073763844 0.000127720815561 -5.38315698028e-05
0.000364276789184 0.000153894698332 -5.5193114707e-05
0.000444872954117 0.000121277427929 -4.92278434684e-05
0.000412524878309 0.000119389961009 -5.36614264905e-05
0.000487317720931 0.000114823492692 -5.07129111453e-05
0.000112301163462 4.73328191809e-05 -5.20717492307e-05
0.000185725309941 5.29899984654e-05 -4.62106089089e-05
0.00023385317011 9.80326462308e-05 -5.04878610783e-05
0.000174373801197 7.06940316087e-05 -4.68326695827e-05
0.000220263021968 6.25202287334e-05 -4.7093199295e-05
0.000390324113134 0.000106120402888 -5.25868749699e-05
0.000549998395797 7.71425121277e-05 -4.59829303235e-05
0.000493136555138 8.6427765826e-05 -4.55069942832e-05
0.000539172411525 0.000101964506997 -5.06561527575e-05
0.000507135639788 9.20463854216e-05 -5.07538102864e-05
0.000560032331341 0.000125715404582 -5.15029156949e-05
0.000598616455177 5.25427164643e-05 -4.61836296344e-05
0.000654440801723 0.000121322423374 -5.05482103293e-05
0.000649270885123 8.13314681916e-05 -4.62559621909e-05
0.000729464123598 -1.94683419372e-05 -3.70090031657e-05
0.000172742215445 1.95903403898e-07 -4.41827686319e-05
0.00015824432529 -4.55809512843e-05 -3.65613519476e-05
0.000404468080887 3.46092189641e-05 -4.5271389998e-05
0.000551774720315 -3.28582774545e-05 -3.85915483122e-05
0.000692865742283 4.75623005471e-05 -4.40940655488e-05
0.000360825161652 -1.77299098731e-05 -3.96348910981e-05
0.000447802148108 -5.35339075693e-05 -3.62459878066e-05
0.000685934446291 -5.67643286181e-05 -3.58066378825e-05
0.000136699438653 -8.5844648603e-05 -3.34721510291e-05
0.000241332107034 -8.70765819874e-05 -3.23852695945e-05
0.000341674985631 -0.000132200183837 -2.75501535531e-05
0.000538064739207 -0.000153709800533 -2.67270169008e-05
0.000734057628507 -0.000166931474607 -2.55819299569e-05
0.000166450192868 -0.000182908339186 -2.31528161868e-05
8.33206318597e-05 -0.000216635516492 -7.47816815549e-06
0.000189853704599 -0.000156908522058 -2.59651857624e-05
0.000255366164777 -0.000196126480983 -2.0890476884e-05
0.000403054720408 -0.000170221689436 -2.37693338132e-05
0.000681011581421 -0.000227859577961 -2.0898080818e-05
0.000227743116746 -0.000238235911705 -1.78420065674e-05
0.000322121102892 -0.000247437666261 -1.5190581935e-05
0.000454474086558 -0.000229278046831 -1.93665524033e-05
0.000546132646271 -0.000218958784337 -2.1033812398e-05
0.000740975530472 -0.000264706391731 -1.57887807864e-05
-5.40788688325e-05 -1.02895966201e-05 5.92088638887e-06
0 0 0
-5.55912235365e-05 -1.01348438732e-05 2.98840835898e-05
-0.000162524125076 -0.000225923655206 -1.33487262533e-05
-4.99820797943e-05 -3.43132778787e-05 4.61826254811e-05
0 0 0
-7.91205143112e-05 -6.35260126792e-05 1.03887688406e-05
-0.000129466517642 -0.000185898514259 -1.6352301816e-05
-0.000107629396262 -0.00029186631261 3.21637631224e-05
-3.25919603917e-05 -0.000300527484697 3.09116931055e-05
0 0 0
-7.58558180812e-05 -8.61363883596e-05 -2.29710695644e-06
-8.80262147044e-05 -8.17040086826e-05 3.22791286355e-05
-0.000151507070474 -0.000221432680694 7.70914728653e-06
-0.000152758343921 -0.000289275389154 3.50728684958e-05
0 0 0
-5.47622353857e-05 -3.85774176026e-05 4.83863633042e-05
-0.000149818829552 -0.000237727122104 4.30643442313e-05
-6.87151336215e-05 -6.19293936173e-05 5.49829640711e-05
-8.27141174913e-05 -0.000365851591782 6.9676170365e-05
-8.95110942534e-05 -0.000122991970915 5.32875450609e-05
-0.000142793586169 -0.000249462390921 7.33328031177e-05
-0.000115549263952 -0.000370667686928 8.49349507161e-05
3.97220094328e-05 -0.00043646108941 7.01256049428e-05
0 0 0
0 0 0
-6.20653629437e-05 -5.9854569108e-05 6.50958147303e-05
-5.03803639282e-07 -0.000505185922142 0.000114183269881
-6.39333692716e-05 -0.000447314430445 0.0001357287521
0 0 0
0 0 0
0 0 0
0 0 0
0 0 0
-4.76438380177e-05 -2.31985530687e-05 8.38798528579e-05
-4.08776158319e-05 -2.30863012182e-05 5.83719136473e-05
-6.84941036043e-05 -0.00015603838543 6.0862024137e-05
-7.58567842909e-05 -0.000298540718311 9.60056005197e-05
4.15652846259e-05 -0.000531922457838 0.000205602890308
3.41934816643e-05 -0.00055977477368 0.000168139773285
-3.62679321881e-06 -0.000513808719281 0.000184335807897
-5.24586812664e-05 -0.00019590252873 8.54995665111e-05
-2.91961573547e-05 -0.000440124350401 0.000179301835686
1.41884470877e-05 -0.000559005183125 0.000209820734496
0.000121936239768 -0.000603635489855 0.000185718249752
0.000142681628842 -0.000811746505681 0.000179299950152
8.13974677089e-05 -0.00067709253435 0.000151073924499
0 0 0
-2.90891032242e-05 -0.00043904182038 0.000154551548693
0.000108255756832 -0.000629309756197 0.00021092810402
0 0 0
-7.9872093274e-06 -0.000480999603004 0.000202556082185
6.8786771746e-06 -0.000528790619138 0.000212987980551
0 0 0
0 0 0
-7.62080108323e-06 -0.000208162086162 0.000117594198371
4.54984031028e-05 -0.000615108376242 0.000249928342301
0.000212257480049 -0.000741886992729 0.000182530999099
3.83526391217e-05 -0.0005614667588 0.000235529211723
6.55967985344e-05 -0.000623959895302 0.000252615167498
0 0 0
0 0 0
4.61139317148e-06 -0.000489643988312 0.000164567140023
0.00017702394626 -0.000749164332839 0.000241465976242
0.000609064063809 -0.000277117729392 -1.60826002681e-05
0.000511017316214 -0.000336572426897 -1.16591423767e-05
0.000218934473482 -0.000318074203779 -4.71865296308e-06
0.000433070739795 -0.000304085145521 -1.31474115646e-05
0.000630692918995 -0.000339122716847 -1.08491141145e-05
0.000700722740198 -0.00030770778651 -1.40651993425e-05
0.000142752197353 -0.000332742370095 1.18119996955e-05
0.000352067845389 -0.000358553035248 -6.10324595016e-06
0.000634987716366 -0.000375361663736 -7.20438688518e-06
0.000716785551845 -0.000340108128425 -1.00021458744e-05
0.000271361471612 -0.000391349359134 -4.08939152751e-07
0.000393311718243 -0.000407119614935 -3.53261750427e-06
0.000529812455073 -0.000402357074155 -7.74219423093e-06
0.000579688603507 -0.000391618817618 -6.76506475797e-06
0.000824623976637 -0.000437941915142 -2.23030544751e-06
0.000111198916693 -0.000394486828873 3.71927468354e-05
0.000213160836752 -0.000470559488933 2.33673460684e-05
0.000423460387244 -0.000480710431002 -7.63922431516e-06
0.000453675346336 -0.000456810178994 -4.86660382724e-06
0.000748499249444 -0.00052453410344 4.26449992241e-06
0.000363826754869 -0.000551761869052 -3.95344089241e-06
0.000456367338736 -0.000622634499151 -3.12810518287e-07
0.000291326568916 -0.000638646764854 2.80745516853e-05
0.000150285875631 -0.000586838599245 7.86315219337e-05
0.000414675975919 -0.000823296441813 1.06825529556e-06
0.000141922126771 -0.000743273651313 0.0001316633618
0.000321481718985 -0.000760641478701 5.60759903503e-05
0.000445386775016 -0.000689584078527 -3.42494242129e-06
0.000321884373608 -0.00103607945346 0.00014325630475
0.000474047097248 -0.000830031255083 9.47525980888e-06
0.0005 -0.0023 0
0.0005 -0.0023 0
0.000229984696514 -0.00105888906404 0.000244315018762
0.000418448160638 -0.00125685486498 0.00017996663001
0.0005 -0.0023 0
0.0005 -0.0023 0
0.0005 -0.0023 0
0.000266407835614 -0.00104657967324 0.000231413864558
0.000352935369116 -0.00127326346921 0.000250376122756
0.0005 -0.0023 0
0 0 0
0.000163123788255 -0.000719532877072 -0.000287706396041
0.000225999402822 -0.000775495260026 -0.00025501765154
0 0 0
0 0 0
3.80523366342e-05 -0.000470734699551 -0.000236139522249
0.000123215181115 -0.000648758167038 -0.000284295829303
0.000107419107841 -0.000659062250128 -0.000297968474854
0.00031532769321 -0.00096987522767 -0.000253040504799
0 0 0
5.61866563326e-05 -0.000438357764909 -0.000202692924066
0.000231577181275 -0.000825512184504 -0.000298020712466
0.000160956028921 -0.000653136392325 -0.000266181793001
0.000233095709301 -0.00079241709545 -0.000279115161832
0.000325594359844 -0.000955741482167 -0.000276308895667
0.000103338841151 -0.000506910242191 -0.000173617376348
0.00012614033295 -0.000586091791788 -0.000240354526448
0.000113561294983 -0.000434945021305 -0.000122208351325
0 0 0
0.000140888991227 -0.000591872989544 -0.000185987366612
0.0002121894409 -0.00073931630897 -0.000249564197241
0.000318125350511 -0.000925116885462 -0.000279135449606
0 0 0
0.00020096266894 -0.000627285218449 -0.00017270633561
0.000315217093891 -0.000915750040657 -0.000252496810799
0.000433399646343 -0.00110487235898 -0.000252358282482
0.000311002011728 -0.000709165509824 -0.000142432686841
0.000280253479912 -0.000830639319884 -0.00022490431384
0.000418747429866 -0.00105851163165 -0.000231967116715
0.000343751629103 -0.000930087535919 -0.00021980634509
0.000163398974796 -0.0007243601202 -3.06314831829e-05
0.000313717276336 -0.00073172079702 -9.23411607004e-05
0.000334579447592 -0.000875075900855 -0.000190526580869
0.000404274121405 -0.000994619842004 -0.000154917373976
0.000462409901924 -0.00109765456323 -0.000199473921932
0.000495441597639 -0.00115001500741 -0.000165496808245
0.000360233121197 -0.000773630274389 -0.000107568648475
0.000396459628586 -0.000774145678313 -5.40811924028e-05
0.000318081814234 -0.000782651866617 -4.89318511012e-05
0.000277241501567 -0.00081117734148 -1.74510698573e-05
0.000378558480382 -0.000846910437561 -2.73161216328e-05
0.000423332771677 -0.000811706695518 -2.44530823095e-05
0.000385638956969 -0.00122452136613 -0.000267329496137
0.000397618793511 -0.00107515125359 -0.000260748440398
0.000510451391963 -0.00140373830886 -0.000106676281169
0.000447056011008 -0.00124320031094 -0.00024864219093
0.000497454424394 -0.00146959575755 -0.000202851732667
0.0005 -0.0023 0
0.0005 -0.0023 0
0.000469468037475 -0.0011751184859 -0.000233971883195
0.00052787646719 -0.00132691197056 -0.00022158587064
0.000551176225795 -0.00128335947206 -0.000187457121282
0.000570787049152 -0.00137087988975 -0.000159872496449
0.000557575452989 -0.00147273156534 -8.19104987188e-05
0.000566854927815 -0.00127641275875 -0.000145286145584
0 0 0
0 0 0
8.68770990658e-05 -0.000633470341196 0.000256266152461
0.000196707758758 -0.000803196427606 0.00027281383214
0 0 0
0 0 0
0 0 0
8.51116908231e-05 -0.000380731015035 0.000174880903531
0.000123998438556 -0.000706919124362 0.000269449589188
0.000288308013486 -0.000929342757917 0.000234337904182
0 0 0
5.43072761162e-05 -0.000529037936397 0.000203797111859
0.000122381213505 -0.000616270911268 0.000241954665781
0 0 0
0.000134579067902 -0.000576971634949 0.000215013954838
0.000194283156945 -0.000791869653471 0.000253537877596
0.000273661103594 -0.000916806600613 0.000267589850147
0.000213493389912 -0.000822278659208 0.000269891971367
0.000378193022918 -0.00106140646516 0.000253445706443
0.000102403085739 -0.000348324658946 0.000106190993164
0.000251612970511 -0.00079199009113 0.000215895422665
0.000233314380276 -0.000696736219118 0.00019530283125
0.000275027368799 -0.000908929203278 0.00025891580849
0 0 0
0 0 0
0.000114591975064 -0.000353921784674 8.60134359037e-05
0.000217255334393 -0.000630290337524 0.000150486358608
0.000324089054709 -0.000964134398285 0.000230502863649
0 0 0
0.000270862777908 -0.000747292989759 0.000164562682709
0.000341181078732 -0.0009286977639 0.000188811506631
0.000415299752312 -0.00109541533193 0.000218768231947
7.38027259468e-05 -0.000542849393674 2.8418847986e-05
0.000277596179365 -0.000598697295192 0.000120673989754
0.000453204586393 -0.00108665423442 0.000132681387386
0.000492565412255 -0.00118687900254 0.000178010968544
0.000280888784135 -0.000721710486525 5.83344797536e-05
0.000375918501341 -0.000809720374105 7.19810431101e-05
0.000410021422825 -0.000742421195074 4.03132344989e-05
0.000547711575115 -0.00122025756345 6.32835857594e-05
0.00016433597673 -0.000731105675388 -1.8154897055e-05
0.000181523726796 -0.000824986839413 4.54175954669e-07
0.000218431768555 -0.000735153272327 6.33061820648e-06
0.000415962485379 -0.000910877555808 -6.11336486261e-05
0.000411346683322 -0.000795295762683 -2.17690344661e-05
0.000456714945375 -0.00103399173171 4.41089997431e-05
0.000410597867558 -0.00089662774489 -3.89578505406e-05
0.000489627433865 -0.00110270468359 -8.81840902352e-05
0.000547296999848 -0.00120074860585 -5.70252061649e-05
0.000556513615954 -0.00123425981059 -9.20781852823e-05
0.000628997929135 -0.00136062341757 -1.07326053551e-06
0.000363573821067 -0.000806675914694 9.14612268883e-06
0.000263162231385 -0.000829196204913 -8.80990918244e-06
0.000300398056584 -0.000839568495722 -6.9994595448e-06
0.00041734398113 -0.00085041923536 -1.82187415583e-05
0.000343600251347 -0.000868997687091 -1.02064461263e-05
0.000401194761508 -0.000855424759281 -1.52608530476e-05
0.000390263535718 -0.000864150361885 -1.44589435491e-05
0.000499359269319 -0.00155098133329 0.000189391728862
0.0005 -0.0023 0
0.000399043621414 -0.0011127149733 0.000224297418653
0.0005 -0.0023 0
0.0005 -0.0023 0
0.000445116875801 -0.00136316042238 0.000231645269966
0.0005 -0.0023 0
0.000561725948721 -0.00144348811279 0.000184657969776
0.0005 -0.0023 0
0.0005 -0.0023 0
0.000508483013418 -0.00130077698006 0.000189318346613
0.0005 -0.0023 0
0.00061812155404 -0.00141422258345 8.64025199894e-05
0.000551580949426 -0.00159319075305 2.7180510748e-05
0.00061632490209 -0.00131623282572 -9.63780354084e-05
CELL_DATA 1000
VECTORS traction double
6973960.0999 17331606.7594 4031821.26163
6994689.11139 22015990.2754 7745112.13635
7237992.39178 16732215.0815 6837744.30887
2658474.98031 13685100.6849 3252976.23356
9154065.09896 14489450.5819 8764216.94767
7501824.97363 19555375.1182 4039584.15411
7722611.53737 10358311.5824 1921036.74984
8609940.00679 13631514.9061 1277100.78797
6567676.28778 11388659.7463 -1099419.08086
0 0 0
0 0 0
0 0 0
0 0 0
0 0 0
0 0 0
0 0 0
0 0 0
0 0 0
0 0 0
0 0 0
0 0 0
0 0 0
0 0 0
0 0 0
0 0 0
0 0 0
0 0 0
0 0 0
0 0 0
0 0 0
0 0 0
0 0 0
0 0 0
0 0 0
0 0 0
0 0 0
0 0 0
0 0 0
0 0 0
0 0 0
0 0 0
0 0 0
0 0 0
0 0 0
0 0 0
0 0 0
0 0 0
0 0 0
0 0 0
0 0 0
0 0 0
0 0 0
0 0 0
0 0 0
0 0 0
0 0 0
0 0 0
0 0 0
0 0 0
0 0 0
0 0 0
0 0 0
0 0 0
0 0 0
0 0 0
0 0 0
0 0 0
0 0 0
0 0 0
0 0 0
0 0 0
0 0 0
0 0 0
0 0 0
0 0 0
0 0 0
0 0 0
0 0 0
0 0 0
0 0 0
0 0 0
0 0 0
0 0 0
0 0 0
0 0 0
0 0 0
0 0 0
0 0 0
0 0 0
0 0 0
0 0 0
0 0 0
0 0 0
0 0 0
0 0 0
0 0 0
0 0 0
0 0 0
0 0 0
0 0 0
0 0 0
0 0 0
0 0 0
0 0 0
0 0 0
0 0 0
0 0 0
0 0 0
0 0 0
0 0 0
0 0 0
0 0 0
0 0 0
0 0 0
0 0 0
0 0 0
0 0 0
0 0 0
0 0 0
0 0 0
0 0 0
0 0 0
0 0 0
0 0 0
3942985.50601 9659643.68581 3814597.66905
-721899.032156 15256187.1911 6139328.00615
6848276.18784 19059920.1275 7788508.36192
0 0 0
0 0 0
0 0 0
0 0 0
0 0 0
0 0 0
0 0 0
0 0 0
0 0 0
0 0 0
0 0 0
0 0 0
12025736.9059 32286426.1978 8667705.31828
0 0 0
0 0 0
0 0 0
0 0 0
0 0 0
0 0 0
0 0 0
0 0 0
8349492.28873 12864301.8818 -2209749.85773
0 0 0
0 0 0
0 0 0
0 0 0
0 0 0
0 0 0
0 0 0
6334708.91182 49980031.311 14705508.6771
0 0 0
0 0 0
0 0 0
0 0 0
0 0 0
0 0 0
10138394.3735 30311520.9151 -7282435.44093
5491748.41085 35037233.3254 6037917.35076
0 0 0
0 0 0
0 0 0
0 0 0
3789755.4223 47664851.4135 9946341.06453
0 0 0
0 0 0
0 0 0
0 0 0
0 0 0
0 0 0
0 0 0
0 0 0
0 0 0
0 0 0
0 0 0
0 0 0
3754459.56731 76049619.3863 24500214.0732
0 0 0
0 0 0
0 0 0
0 0 0
0 0 0
1452600.97416 52571100.2714 13386126.3924
0 0 0
0 0 0
0 0 0
0 0 0
0 0 0
0 0 0
0 0 0
0 0 0
0 0 0
0 0 0
0 0 0
0 0 0
0 0 0
0 0 0
0 0 0
0 0 0
0 0 0
0 0 0
0 0 0
0 0 0
0 0 0
0 0 0
0 0 0
0 0 0
0 0 0
0 0 0
0 0 0
0 0 0
0 0 0
0 0 0
0 0 0
0 0 0
0 0 0
0 0 0
0 0 0
0 0 0
0 0 0
0 0 0
0 0 0
0 0 0
0 0 0
0 0 0
0 0 0
0 0 0
0 0 0
0 0 0
0 0 0
0 0 0
0 0 0
0 0 0
0 0 0
0 0 0
0 0 0
0 0 0
0 0 0
0 0 0
0 0 0
0 0 0
0 0 0
0 0 0
0 0 0
0 0 0
0 0 0
0 0 0
0 0 0
0 0 0
0 0 0
0 0 0
0 0 0
0 0 0
0 0 0
0 0 0
0 0 0
-5169624.94812 -291703354.589 45714247.8266
0 0 0
0 0 0
0 0 0
0 0 0
0 0 0
0 0 0
0 0 0
0 0 0
0 0 0
0 0 0
0 0 0
0 0 0
0 0 0
0 0 0
0 0 0
0 0 0
0 0 0
0 0 0
0 0 0
0 0 0
0 0 0
0 0 0
0 0 0
0 0 0
0 0 0
0 0 0
0 0 0
0 0 0
0 0 0
0 0 0
0 0 0
0 0 0
0 0 0
0 0 0
0 0 0
0 0 0
0 0 0
0 0 0
0 0 0
0 0 0
0 0 0
0 0 0
0 0 0
0 0 0
0 0 0
0 0 0
0 0 0
0 0 0
0 0 0
0 0 0
0 0 0
0 0 0
0 0 0
0 0 0
0 0 0
0 0 0
0 0 0
0 0 0
0 0 0
0 0 0
0 0 0
0 0 0
0 0 0
0 0 0
0 0 0
0 0 0
0 0 0
0 0 0
0 0 0
0 0 0
0 0 0
0 0 0
0 0 0
0 0 0
0 0 0
0 0 0
0 0 0
0 0 0
0 0 0
0 0 0
0 0 0
0 0 0
0 0 0
0 0 0
0 0 0
0 0 0
0 0 0
0 0 0
0 0 0
10143064.2577 9586502.66839 -2448117.59067
0 0 0
0 0 0
0 0 0
0 0 0
0 0 0
0 0 0
0 0 0
0 0 0
0 0 0
0 0 0
0 0 0
0 0 0
0 0 0
0 0 0
0 0 0
0 0 0
0 0 0
0 0 0
0 0 0
0 0 0
0 0 0
0 0 0
0 0 0
0 0 0
0 0 0
0 0 0
0 0 0
0 0 0
0 0 0
0 0 0
0 0 0
0 0 0
0 0 0
0 0 0
0 0 0
0 0 0
0 0 0
0 0 0
0 0 0
0 0 0
0 0 0
0 0 0
0 0 0
0 0 0
0 0 0
0 0 0
0 0 0
0 0 0
0 0 0
0 0 0
0 0 0
0 0 0
0 0 0
0 0 0
0 0 0
0 0 0
0 0 0
0 0 0
0 0 0
0 0 0
0 0 0
0 0 0
0 0 0
0 0 0
0 0 0
0 0 0
0 0 0
0 0 0
0 0 0
0 0 0
0 0 0
0 0 0
0 0 0
0 0 0
0 0 0
0 0 0
0 0 0
0 0 0
0 0 0
0 0 0
0 0 0
0 0 0
0 0 0
0 0 0
0 0 0
0 0 0
0 0 0
0 0 0
0 0 0
0 0 0
0 0 0
0 0 0
0 0 0
0 0 0
0 0 0
0 0 0
0 0 0
0 0 0
0 0 0
0 0 0
0 0 0
0 0 0
0 0 0
0 0 0
0 0 0
0 0 0
0 0 0
0 0 0
0 0 0
0 0 0
0 0 0
9612921.09586 9948169.49463 -1986361.59874
8402403.80787 10752824.9211 -3161087.50685
0 0 0
0 0 0
0 0 0
0 0 0
0 0 0
0 0 0
0 0 0
0 0 0
0 0 0
0 0 0
0 0 0
0 0 0
0 0 0
0 0 0
0 0 0
0 0 0
0 0 0
0 0 0
6590084.90356 12259964.2743 -895852.980386
7872477.06399 13312080.1645 -6767881.70095
0 0 0
0 0 0
0 0 0
0 0 0
0 0 0
0 0 0
0 0 0
0 0 0
0 0 0
0 0 0
0 0 0
6073437.99336 16982016.8647 233542.591964
7086893.95623 19929138.4741 946339.670232
8156964.09929 14444986.4188 -2170650.24836
0 0 0
0 0 0
0 0 0
0 0 0
0 0 0
0 0 0
0 0 0
0 0 0
0 0 0
0 0 0
0 0 0
0 0 0
7708041.57275 17735949.2075 -4520823.68712
0 0 0
0 0 0
0 0 0
0 0 0
0 0 0
0 0 0
0 0 0
3311055.18938 16923251.3034 1680741.93725
1021321.43777 17663055.6551 -2388627.67769
6596472.72398 19381625.7847 -4082331.97144
7338089.38296 19098549.7798 -6662063.16783
0 0 0
0 0 0
0 0 0
0 0 0
0 0 0
-4206476.00724 13606492.384 4796447.71437
6682392.2066 19429514.2103 -430634.669834
7654243.49397 23116146.4465 1108662.16364
0 0 0
0 0 0
2452674.78359 23162912.5694 4989414.96732
10252549.3557 32396810.0985 -10113285.5955
-232984.884926 19011108.6026 -4903773.73447
4440757.16864 17723450.6647 -4364362.57645
9455847.06846 23329497.9506 -12062666.8783
0 0 0
0 0 0
0 0 0
0 0 0
0 0 0
0 0 0
0 0 0
0 0 0
0 0 0
0 0 0
-2557152.25475 20304408.8809 1087890.56779
9659961.87002 32252245.7595 3183916.01692
1734666.89021 10799848.6461 544076.590957
0 0 0
12356003.2655 27815505.6506 -6831396.74218
0 0 0
0 0 0
0 0 0
0 0 0
0 0 0
0 0 0
0 0 0
0 0 0
0 0 0
12085120.3518 21091157.7599 6403282.54251
0 0 0
0 0 0
0 0 0
0 0 0
0 0 0
2787255.29228 43270604.2325 -3137283.58782
7521100.73799 46247100.4904 -19761782.8906
0 0 0
0 0 0
4654436.63287 33574807.5802 2128345.14823
5739365.61511 38573057.2412 -2763880.72863
10653033.9664 30729970.241 3014015.34506
0 0 0
0 0 0
0 0 0
0 0 0
0 0 0
0 0 0
0 0 0
0 0 0
1682167.34783 43946839.9935 3258274.37787
2933462.20397 49568295.964 -6887671.37241
0 0 0
0 0 0
0 0 0
0 0 0
5489065.19986 22185104.4814 17229036.0865
3163765.04762 50323017.5724 -5420870.97576
16497690.2275 32692667.5117 5349233.17887
0 0 0
0 0 0
0 0 0
0 0 0
0 0 0
0 0 0
0 0 0
0 0 0
0 0 0
0 0 0
0 0 0
0 0 0
0 0 0
0 0 0
0 0 0
0 0 0
0 0 0
0 0 0
0 0 0
0 0 0
0 0 0
0 0 0
0 0 0
0 0 0
0 0 0
0 0 0
0 0 0
0 0 0
0 0 0
0 0 0
0 0 0
0 0 0
0 0 0
0 0 0
0 0 0
0 0 0
0 0 0
0 0 0
0 0 0
0 0 0
0 0 0
0 0 0
0 0 0
0 0 0
0 0 0
0 0 0
0 0 0
0 0 0
0 0 0
0 0 0
0 0 0
0 0 0
0 0 0
0 0 0
0 0 0
0 0 0
0 0 0
0 0 0
0 0 0
0 0 0
0 0 0
0 0 0
0 0 0
0 0 0
0 0 0
0 0 0
0 0 0
0 0 0
0 0 0
0 0 0
0 0 0
0 0 0
0 0 0
0 0 0
0 0 0
0 0 0
0 0 0
0 0 0
0 0 0
0 0 0
0 0 0
0 0 0
0 0 0
0 0 0
0 0 0
0 0 0
0 0 0
0 0 0
0 0 0
0 0 0
0 0 0
0 0 0
0 0 0
0 0 0
0 0 0
0 0 0
0 0 0
0 0 0
0 0 0
-10248680.657 -273460911.566 -2338292.9124
-13241509.4651 -284095049.668 -9827223.83349
0 0 0
0 0 0
0 0 0
0 0 0
0 0 0
-11266874.904 -317816956.028 35251308.417
314775.751795 -454983501.89 -56272689.469
0 0 0
0 0 0
0 0 0
0 0 0
4359851.70182 27411178.4839 -17179080.2231
-3627632.65896 66049064.1527 13472185.0558
0 0 0
0 0 0
0 0 0
429366.55145 104696172.199 35399907.2638
11674431.5582 51314341.6818 -6942610.65503
15632630.5348 35697870.3998 15532872.3139
13187023.4517 36351143.7972 14310146.2991
0 0 0
0 0 0
0 0 0
0 0 0
0 0 0
0 0 0
0 0 0
0 0 0
0 0 0
24333481.0685 27430881.3652 -3480197.60514
196849.725101 54938242.2113 -130620.781203
0 0 0
0 0 0
0 0 0
0 0 0
-7588705.15486 124143290.225 25727451.1389
0 0 0
0 0 0
0 0 0
0 0 0
0 0 0
0 0 0
0 0 0
0 0 0
0 0 0
0 0 0
0 0 0
0 0 0
0 0 0
0 0 0
0 0 0
0 0 0
0 0 0
0 0 0
0 0 0
0 0 0
0 0 0
0 0 0
0 0 0
0 0 0
0 0 0
0 0 0
0 0 0
0 0 0
0 0 0
0 0 0
0 0 0
0 0 0
0 0 0
0 0 0
0 0 0
0 0 0
0 0 0
0 0 0
0 0 0
0 0 0
0 0 0
0 0 0
0 0 0
0 0 0
0 0 0
0 0 0
0 0 0
0 0 0
0 0 0
0 0 0
0 0 0
0 0 0
0 0 0
0 0 0
0 0 0
0 0 0
0 0 0
0 0 0
0 0 0
0 0 0
0 0 0
0 0 0
0 0 0
0 0 0
0 0 0
0 0 0
0 0 0
0 0 0
0 0 0
0 0 0
0 0 0
-41834776.0141 -303783415.6 47650340.6624
0 0 0
0 0 0
0 0 0
0 0 0
0 0 0
0 0 0
0 0 0
0 0 0
0 0 0
0 0 0
0 0 0
0 0 0
0 0 0
0 0 0
0 0 0
12134814.2343 31026768.8466 918736.120546
-2649307.00629 61623516.0877 -8007981.70806
0 0 0
0 0 0
0 0 0
2187694.54774 33001978.2368 100152.790654
10660080.6531 50606099.6037 -19566212.8225
-2253157.66395 86907395.1232 -18408120.0083
12898217.7257 27028275.8036 -11189155.0151
9069220.98284 51007183.8403 6262321.5731
0 0 0
0 0 0
0 0 0
0 0 0
0 0 0
0 0 0
257404.567109 41697320.0622 2387358.52455
-3105913.82591 60549944.8004 -3046271.33569
-3741363.97012 46274456.8926 4589410.04196
854022.672799 43341550.1061 -2313576.99364
-2588984.45215 50768434.5976 19221088.483
0 0 0
0 0 0
0 0 0
0 0 0
0 0 0
0 0 0
-3058780.19778 108108723.227 8940994.00717
-217835.315542 53625163.1436 -1512227.45231
-1639269.82297 115686815.001 -13860688.6869
0 0 0
0 0 0
0 0 0
0 0 0
0 0 0
0 0 0
0 0 0
-5328356.44116 54195781.1349 5457139.89009
0 0 0
0 0 0
29431847.5198 26996326.4378 -9721750.61729
0 0 0
0 0 0
0 0 0
0 0 0
0 0 0
0 0 0
0 0 0
-3849442.17673 71429723.2041 -328370.79812
-33719265.0171 122406470.809 -11887083.2776
0 0 0
0 0 0
0 0 0
0 0 0
0 0 0
0 0 0
0 0 0
-29492514.8048 194909905.373 29857106.9773
-7290516.55006 159208141.687 -164183.580424
0 0 0
0 0 0
0 0 0
0 0 0
0 0 0
0 0 0
-18865240.1248 144922345.823 -28457406.6161
0 0 0
0 0 0
0 0 0
0 0 0
0 0 0
0 0 0
0 0 0
0 0 0
0 0 0
0 0 0
0 0 0
0 0 0
0 0 0
0 0 0
0 0 0
0 0 0
0 0 0
0 0 0
0 0 0
0 0 0
0 0 0
0 0 0
0 0 0
0 0 0
0 0 0
0 0 0
0 0 0
0 0 0
0 0 0
0 0 0
0 0 0
0 0 0
0 0 0
0 0 0
0 0 0
0 0 0
0 0 0
0 0 0
0 0 0
0 0 0
0 0 0
0 0 0
0 0 0
0 0 0
0 0 0
0 0 0
0 0 0
0 0 0
0 0 0
0 0 0
0 0 0
0 0 0
0 0 0
0 0 0
0 0 0
0 0 0
0 0 0
0 0 0
0 0 0
0 0 0
0 0 0
0 0 0
0 0 0
0 0 0
0 0 0
0 0 0
0 0 0
0 0 0
0 0 0
0 0 0
-3966234.1264 -92399526.3905 8987935.77402
-518623.430933 -108597292.876 -7079170.02143
-860249.268819 -151362389.784 -12752785.3338
0 0 0
0 0 0
0 0 0
-18644063.2723 -123290738.174 11306975.1991
-5527105.15998 -94571523.5687 7202744.75411
-8802010.58786 -89232521.5763 783059.71258
0 0 0
0 0 0
0 0 0
-20295738.1727 -111806636.1 15877880.1405
-33556577.9866 -201832371.708 -25291818.389
0 0 0
0 0 0
0 0 0
-29988352.7525 -194242035.545 -35234816.9925
-68657871.4678 -334726545.579 -74460509.2126
-21890516.5779 -86726581.7356 1615714.4976
-20569719.483 -98994962.7794 -896817.791876
-25902292.6157 -103354909.472 -14130182.2303
0 0 0
0 0 0
0 0 0
0 0 0
-45750463.8541 -235647292.715 6693108.49179
0 0 0
0 0 0
0 0 0
0 0 0
0 0 0
0 0 0
0 0 0
0 0 0
0 0 0
0 0 0
0 0 0
0 0 0
0 0 0
0 0 0
0 0 0
0 0 0
0 0 0
0 0 0
0 0 0
0 0 0
SCALARS region double
LOOKUP_TABLE default
1
1
1
1
1
1
1
1
1
3
3
3
3
3
3
3
3
3
3
3
3
3
3
3
3
3
3
3
3
3
3
3
3
3
3
3
3
3
3
3
3
3
3
3
3
3
3
3
3
3
3
3
3
3
3
3
3
3
3
3
3
3
3
3
3
3
3
3
3
3
3
3
3
3
3
3
3
3
3
3
3
3
3
3
3
3
3
3
3
3
3
3
3
3
3
3
3
3
3
3
3
3
3
3
3
3
3
3
3
3
3
3
3
3
3
3
3
3
3
3
3
3
3
3
1
1
1
3
3
3
3
3
3
3
3
3
3
3
3
1
3
3
3
3
3
3
3
3
1
3
3
3
3
3
3
3
1
3
3
3
3
3
3
1
1
3
3
3
3
1
3
3
3
3
3
3
3
3
3
3
3
3
1
3
3
3
3
3
1
3
3
3
3
3
3
3
3
3
3
3
3
3
3
3
3
3
3
3
3
3
3
3
3
3
3
3
3
3
3
3
3
3
3
3
3
3
3
3
3
3
3
3
3
3
3
3
3
3
3
3
3
3
3
3
3
3
3
3
3
3
3
3
3
3
3
3
3
3
3
3
3
3
2
3
3
3
3
3
3
3
3
3
3
3
3
3
3
3
3
3
3
3
3
3
3
3
3
3
3
3
3
3
3
3
3
3
3
3
3
3
3
3
3
3
3
3
3
3
3
3
3
3
3
3
3
3
3
3
3
3
3
3
3
3
3
3
3
3
3
3
3
3
3
3
3
3
3
3
3
3
3
3
3
3
3
3
3
3
3
3
3
3
1
3
3
3
3
3
3
3
3
3
3
3
3
3
3
3
3
3
3
3
3
3
3
3
3
3
3
3
3
3
3
3
3
3
3
3
3
3
3
3
3
3
3
3
3
3
3
3
3
3
3
3
3
3
3
3
3
3
3
3
3
3
3
3
3
3
3
3
3
3
3
3
3
3
3
3
3
3
3
3
3
3
3
3
3
3
3
3
3
3
3
3
3
3
3
3
3
3
3
3
3
3
3
3
3
3
3
3
3
3
3
3
1
1
3
3
3
3
3
3
3
3
3
3
3
3
3
3
3
3
3
3
1
1
3
3
3
3
3
3
3
3
3
3
3
1
1
1
3
3
3
3
3
3
3
3
3
3
3
3
1
3
3
3
3
3
3
3
1
1
1
1
3
3
3
3
3
1
1
1
3
3
1
1
1
1
1
3
3
3
3
3
3
3
3
3
3
1
1
1
3
1
3
3
3
3
3
3
3
3
3
1
3
3
3
3
3
1
1
3
3
1
1
1
3
3
3
3
3
3
3
3
1
1
3
3
3
3
1
1
1
3
3
3
3
3
3
3
3
3
3
3
3
3
3
3
3
3
3
3
3
3
3
3
3
3
3
3
3
3
3
3
3
3
3
3
3
3
3
3
3
3
3
3
3
3
3
3
3
3
3
3
3
3
3
3
3
3
3
3
3
3
3
3
3
3
3
3
3
3
3
3
3
3
3
3
3
3
3
3
3
3
3
3
3
3
3
3
3
3
3
3
3
3
3
3
3
3
3
3
2
2
3
3
3
3
3
2
2
3
3
3
3
1
1
3
3
3
1
1
1
1
3
3
3
3
3
3
3
3
3
1
1
3
3
3
3
1
3
3
3
3
3
3
3
3
3
3
3
3
3
3
3
3
3
3
3
3
3
3
3
3
3
3
3
3
3
3
3
3
3
3
3
3
3
3
3
3
3
3
3
3
3
3
3
3
3
3
3
3
3
3
3
3
3
3
3
3
3
3
3
3
3
3
3
3
3
3
3
2
3
3
3
3
3
3
3
3
3
3
3
3
3
3
3
1
1
3
3
3
1
1
1
1
1
3
3
3
3
3
3
1
1
1
1
1
3
3
3
3
3
3
1
1
1
3
3
3
3
3
3
3
1
3
3
1
3
3
3
3
3
3
3
1
1
3
3
3
3
3
3
3
1
1
3
3
3
3
3
3
1
3
3
3
3
3
3
3
3
3
3
3
3
3
3
3
3
3
3
3
3
3
3
3
3
3
3
3
3
3
3
3
3
3
3
3
3
3
3
3
3
3
3
3
3
3
3
3
3
3
3
3
3
3
3
3
3
3
3
3
3
3
3
3
3
3
3
3
3
3
3
2
2
2
3
3
3
2
2
2
3
3
3
2
2
3
3
3
2
2
2
2
2
3
3
3
3
2
3
3
3
3
3
3
3
3
3
3
3
3
3
3
3
3
3
3
3
3
SCALARS max_principal_stress double
LOOKUP_TABLE default
-4.90233121807e-07
0
0
-2.45116560903e-07
1.98941698054e-06
1.00895073693e-06
-2.45116560903e-07
7.63834176026e-07
-1.23982505117e-06
3719643.08789
3624209.13191
4083989.01797
2562259.07814
4794928.81802
3730703.34632
2275502.04952
-1258276.08219
5021894.52594
4500272.88987
2843607.87084
747835.35582
7509787.50667
2873550.33055
3128755.84117
5124213.00786
2675604.57063
941991.054492
323980.978774
374779.577736
361486.105662
243258.276821
482912.98125
1108829.14562
480105.824761
99591.3540414
188790.125311
305691.866074
620176.143713
670012.513115
404.470020786
291026.378196
321202.62836
131005.154203
251248.887376
2445433.09061
3158609.88559
335311.90285
463489.656702
566784.695571
126873.873494
374459.921326
548227.512054
823355.821536
247948.062492
223862.135594
587437.386504
1741753.72328
-516047.895195
-1209597.53397
409246.770801
133024.042097
200145.389134
64034.0564195
693403.722549
-25734.732063
250805.541643
306579.547777
-25472.3594813
268511.389143
103151.224319
174286.991879
270575.478031
158222.07124
418093.15119
315701.387042
199471.130774
286688.522595
1042713.26908
984894.834421
182220.151828
764924.693709
808942.73364
266125.720336
416760.678293
798526.182906
728862.14143
269340.372686
295948.50309
726489.429054
1133379.14451
2757070.18617
973321.190442
3798676.69619
5553698.15489
3229618.77755
-511473.807795
-5237361.76077
-5031561.67021
-15470010.1542
-5152151.93901
5429099.61792
-9652884.86977
-15818915.5726
218184.876337
-7939465.49566
2586212.99974
-579484.028857
1748477.37392
-8988462.77329
-10434035.6887
-7276361.44829
-4433673.24298
-3151859.91043
-1133948.32347
1018246.55455
1390422.68193
-666549.570518
3794873.19632
-26006879.1262
8511024.35078
12457799.6524
13019688.2728
21706329.6915
-4036064.341
-7.3534968271e-07
0
1.49918385874e-06
2275601.15398
-25397110.8929
-18459279.6371
7123935.62383
20070460.5028
2887103.81738
1220193.47276
6798311.06117
9773299.76482
11035144.6374
11697419.1261
9221627.85164
-7.3534968271e-07
-6094266.08164
-30615397.0764
7205614.69216
4465732.24873
14161136.8172
10494952.9301
18250655.9141
7704724.91588
-9.80466243613e-07
18902460.922
-6412362.74783
-13999925.3515
-30200582.0634
-2606189.60703
389616.228359
-34613252.1826
-1.48494161208e-06
17290.1076914
-368605.383189
370979.986522
5423728.50035
5212230.42423
14442728.8153
-1.23982505117e-06
-1.48494161208e-06
-13091003.4152
4035934.71723
2992662.525
2137666.38098
7.63834176026e-07
-2294375.81713
1462799.32797
-163080.804938
4820768.45757
4944231.10764
-7486544.55059
7534311.68344
5293489.18172
9962507.47687
8755915.27815
12510265.6294
12014192.6412
1.00895073693e-06
-34398099.7318
-13423644.1575
-56132789.6127
3556013.38062
7187570.18613
0
2549509.28664
4238444.7839
4320571.20762
2113483.41838
-764452.914208
-291940.175186
85285.0192515
-375746.620481
-289936.974405
91858.1040378
-335774.621024
130593.400722
-102985.985909
-238111.825185
-821966.421533
1390015.59199
2687188.77385
2737265.06598
218438.980921
-2019331.49872
-387732.02766
333056.024287
-1203208.81681
1448448.95513
533683.318187
2964968.28961
986306.092053
-1949101.27343
417867.711203
-485760.560697
3518492.88097
1246390.76104
-773800.984386
5022606.09962
1327736.82628
2694569.99901
-1708283.04197
1577638.84041
3015618.97084
10647390.1672
-123938.631505
8550668.49384
3305956.61747
932947.082194
5759614.66962
4064715.46844
5480669.84827
-2560515.35503
2646950.11082
3421184.06808
6315320.09194
3320712.13089
6159125.75246
-1199634.39716
-2511460.68526
6812692.93718
12298578.1011
6219847.70287
-864001.045157
4260342.63927
3165865.97533
14067706.5778
-2268718.26079
-380379.002215
-4204954.88091
20049291.5519
14162440.6659
3045668.05073
-192275054.983
2127741.58714
3826503.81831
2140179.89679
-117454864.766
1.00895073693e-06
27718.4242488
307979.383177
386708.4088
690146.568572
376518.966839
138959.44933
269812.472077
453611.274291
404648.454398
360211.694417
102587.384218
409476.489215
-292791.091468
80470.3061511
711232.324059
1536484.25923
-198095.499971
2471459.07918
250054.282245
1416026.42278
-43927.1838502
1482662.43276
-330040.802895
4737941.34164
1271709.733
2215639.50023
955665.956442
4061170.35142
1627724.27065
-1569119.28514
1946521.47856
2477483.08603
3257172.77162
3147459.25716
7146032.33107
4305420.72602
2774327.01322
1781178.18799
1272828.0488
3760942.99236
-427904.456263
4225878.95435
1888620.08407
-151335.571858
3064475.16496
5039451.96246
1071015.57604
1855772.41984
2052441.27007
1616232.97665
953130.687239
3493373.78571
3117910.9031
4590380.83926
3968089.3388
3756901.45512
4146430.06151
4044918.11113
4297709.46029
4488530.15539
4292338.53022
3132959.83097
4667705.4964
4308393.48397
4695274.34204
3608622.30001
5769865.73185
6717850.81306
5669285.28488
5539424.95546
5203669.37494
4462677.32722
4786368.45473
3318906.13724
3391978.44515
2794878.05247
2740485.09994
9225971.26216
8025858.62148
252449.98164
-4742871.89291
7839585.85866
8191132.681
7339038.53619
8343528.76963
8545881.69095
6819290.40689
5994556.23923
2104271.02563
1.49918385874e-06
-5848464.1772
1869457.26365
441844.234209
2740463.06442
11413800.6145
5590636.56553
2985758.40871
966386.202281
-547921.564994
27227.9058414
464633.280932
431978.188468
1109685.00539
116942.369305
472890.079697
750193.904078
948072.338586
2274422.59596
7451455.95402
7541309.5969
4871334.29969
2611205.53189
-225749.419155
-144241.862056
134472.358063
-203653.680289
-501266.473391
357789.718907
1068397.79936
91774.2113561
853228.970786
894023.153368
429195.097727
512854.572124
336901.640396
985673.696306
1061022.65766
-62822.1912192
146030.454667
-9759.19287633
-17634.8041799
-108007.484842
1703748.33517
6903472.44068
7735068.22235
9128036.50715
3056429.33292
2945622.79409
352837.584323
335072.950406
564829.209038
244954.607095
1204066.49736
247782.738922
140302.637264
1266826.15566
289495.632703
106613.297311
-163088.851637
-86976.05745
-174852.168719
6266837.2224
2846635.74477
2527873.6613
434103.71216
185098.119205
55788.0533466
606548.541082
529054.780884
-209634.705481
39572.8373759
5716458.45056
231064.778498
1240824.60478
255673.278238
119210.427746
11486.8637216
61060.9984703
7668614.89006
-155297.440546
-68031.2450379
181323.698075
59435.6875323
-90272.4323029
344302.799344
5959237.13083
1790528.16549
-1311791.77359
95036.3951222
-748395.775982
261556.766433
-11279.7695394
-556088.787572
-133360.241521
-283154.662872
221978.468537
458713.060719
221315.11608
452462.035668
-1034674.96688
-425602.569209
-654167.055786
-149617.074216
-27839.6742211
-87748.8692774
273801.782888
458024.610823
600074.793894
678015.742768
-1375556.78195
-2331228.05295
-1.23982505117e-06
1.49918385874e-06
-2984334.80994
-2979507.45896
4567039.13772
8514311.20325
12021570.1539
5693831.61018
2406645.21523
-320050.239358
1885454.55438
-3119801.28433
-5120677.15781
-15688516.9498
-32971909.6536
6463718.71454
10697457.3968
10403939.7398
2638366.7302
1245596.79174
2.01790147386e-06
-4.90233121807e-07
-5714779.62417
-6888616.76976
-258232.62279
-1268223.20156
-31369703.232
13343053.0837
8031296.98922
226407.919258
6855041.92427
1902148.68552
-2372762.10419
0
1.00895073693e-06
1.00895073693e-06
-9397234.07782
9924763.61622
-25980415.42
-10984077.1079
-19212252.2819
-17572347.7785
5172174.50314
-271257.073283
-9290846.91085
-8800334.46466
-684243.525007
1639351.0228
-1.97517473388e-06
-12107094.4381
-32888129.5221
-19464537.637
-3048227.68436
-2046182.41622
-2988371.37284
-1628931.74855
-4.90233121807e-07
1.49918385874e-06
0
-7.3534968271e-07
-4316371.89063
-15529962.4126
15509580.5958
-758253.382492
7060740.69847
1.00895073693e-06
-1.47069936542e-06
-2.47965010235e-06
-8940271.39508
6841488.42396
-7.3534968271e-07
-9.80466243613e-07
0
-4.90233121807e-07
1.49918385874e-06
1632397.74638
19384344.272
-17791496.84
-5435721.3586
-22116102.3204
2317234.9871
-1773997.71471
13025067.4528
27644792.3819
32922842.4514
0
-4.90233121807e-07
1.49918385874e-06
20793346.2616
-7.3534968271e-07
-1102605.15652
-17672945.2303
-3231568.99229
9328659.02042
15593231.3814
-152806.153471
10322972.8438
23635537.3312
18985359.763
-1.48494161208e-06
1941008.59674
-16331156.529
-1121433.73023
5149118.96646
8888931.38856
1.49918385874e-06
1.00895073693e-06
9968039.59196
2407259.58368
1.00895073693e-06
1.00895073693e-06
1.49918385874e-06
-43700018.749
17608061.7626
-17797540.3907
-19301400.0669
-879614.176236
4348449.03665
11906119.1918
15456637.5911
-7.3534968271e-07
0
8317333.65963
1535807.37639
4385640.95872
11208116.1728
-2.45116560903e-07
0
-1.23982505117e-06
-19978876.1425
11095201.295
19092763.5881
119722.182149
-151668.820053
-287692.668488
494913.354104
-227956.606672
1101960.02756
794066.144922
-3408357.69037
-3334694.64385
-986671.408218
806670.332081
-215205.677331
-72549.2700122
700053.990947
892321.185896
710060.095399
908595.635581
-943760.820032
-808093.799443
-2702346.28255
-2356090.04305
372808.298223
-530401.352469
491645.63942
197236.805334
1917591.40693
-161606.002034
-4143543.18215
-2126441.05899
-1983499.94262
-1214456.40058
-1112617.10647
-338116.29391
-96215.7410154
700241.686357
729774.912872
2296376.75337
1630994.67283
1116226.5383
1725094.0561
-1279777.4455
-2154282.73943
-882220.01622
5341478.0395
10150298.8605
11813294.7841
12060513.7681
7494893.83908
-624756.355467
4066165.76193
3851232.59875
-1292339.25853
10209332.4765
7732732.69837
21786029.9929
1294518.31302
582119.300858
933480.706324
4349111.02269
5390923.15388
19712889.9628
2169075.12574
6503800.81733
18732209.0047
578649.570497
16092564.5887
-3583974.31558
7014533.38542
20745373.6339
9889587.78541
14700178.2218
23963061.2692
2950550.58487
-519867.439169
20572375.8427
1836638.82723
23318010.7501
7228451.4128
11934410.5535
60034419.3989
33898455.615
15685720.1161
15120737.6813
-34447690.1068
-42857531.302
-51242039.3702
-5554846.18774
15938956.6177
-13331136.051
-47523135.881
-44529262.5741
5994027.2229
11810333.8729
-78257060.3864
-36627171.4745
-35943818.0772
0
7.63834176026e-07
6849289.88673
-9308930.10789
-966268.997403
11411275.0357
-84233626.5779
1.49918385874e-06
-1.97517473388e-06
-26912.1523775
3605642.22234
2920013.28952
2180860.86369
-2.45116560903e-07
1.98941698054e-06
17190344.489
14467888.0249
19108028.5916
0
1.00895073693e-06
1.00895073693e-06
0
-4965182.23994
12293600.3236
6694242.37136
10663330.9843
11067625.8048
11441210.9843
12381886.7542
13478066.478
13830770.9406
7.63834176026e-07
-7.3534968271e-07
-67071572.3444
-41152651.8003
-1892379.92877
19587356.087
-2.45116560903e-07
8464307.62486
8742496.05987
12020649.7501
16319546.0271
23879060.8541
9535223.29606
-51822554.3894
-34350230.8308
18110923.4409
3799872.12497
5842257.9231
5542264.55512
13459979.7422
-40637793.4789
-38481515.0107
6891318.98398
2552307.02722
15951014.1263
15658411.3669
-51622613.9839
2537010.76972
13589674.3116
6864436.64961
8612441.76603
11908128.6235
5446157.50287
544661.969571
24953644.7766
11950325.3215
8403435.8998
12062569.1164
6674919.21912
27414907.0963
7014217.8734
8531691.24368
9443341.44934
7541814.80356
-44126084.4772
29984203.2382
4461315.84832
5968090.23694
4284827.21739
8030474.69612
12587286.6176
12217908.5906
21068285.5828
33508329.3999
13995868.6504
6473092.09574
9358927.44016
7474775.18906
3199265.02099
17625421.7799
4167969.10672
2712837.83424
6458584.2132
1379093.80876
-20606461.7478
18760923.6796
-43715819.9947
323430.689653
-5309882.89486
-44795731.3089
6057793.85607
4864846.67633
10843050.3518
45855408.8326
6931292.64097
-3513274.27175
-16475520.6172
-59826992.8894
0
5633819.81037
-11347558.8207
-3779156.40886
8085995.80857
7267302.84583
-12968620.9085
7551377.8125
5424797.68925
23369795.0406
-64974876.1207
-63148198.2142
16237606.039
1328308.04886
3591527.77623
8469998.97894
1.98941698054e-06
1.00895073693e-06
8770201.25072
2983723.29447
13361341.2138
-1.48494161208e-06
1.00895073693e-06
0
1.00895073693e-06
0
-21812459.3104
-11801310.527
9235719.65581
4926170.74643
9336245.58882
20591731.0362
1.49918385874e-06
1.00895073693e-06
1.00895073693e-06
-2.45116560903e-07
1.00895073693e-06
-60387181.7077
1960956.53006
1919133.50239
10302384.3055
7003662.16439
12910761.2617
1.49918385874e-06
1.00895073693e-06
7.63834176026e-07
-6331281.12768
11068236.2455
7906098.96154
-3399492.3616
10794063.2097
18368955.5923
17311103.7452
-4.90233121807e-07
12460364.9013
10603847.5134
1.06591972356e-06
-31375339.482
-7633207.15075
11712595.3848
10858546.1384
8852345.9529
10184979.4904
14105656.5103
1.49918385874e-06
-7.3534968271e-07
-51697467.0965
-10156277.0745
10528017.3265
2803918.81922
10208756.6445
10797102.5311
16115451.6292
1.00895073693e-06
1.49918385874e-06
-5724189.93493
14531302.1862
8129539.70646
5397435.80155
11759450.1626
11635590.0014
-1.48494161208e-06
-9371226.42757
-11631572.1837
-7122761.17669
-975397.122943
8187934.95492
15257242.6131
6057713.11906
8606507.62287
19495880.741
33876017.7281
-22336818.7266
22743237.8249
13289419.3003
13819002.264
-12246278.4059
11794850.1659
4531448.90594
10540067.3119
-20697421.3483
-14445950.1597
-21902133.2394
-18601655.7181
12573164.4203
31198752.4785
-1078873.0983
15429732.5694
-11407206.9208
-3346538.28316
16361632.4284
-6187210.9279
-12231686.0552
480408.712956
-3421860.70288
10042936.2223
9695499.74548
7430775.61578
7351497.28909
11699099.3733
23942964.443
15906991.9906
7942558.9126
8756505.50286
2492352.6537
18413550.8454
21635149.8642
24839978.5619
8060052.83985
23223625.4247
22939657.8055
2665343.72042
5513459.54943
2854523.81468
-3628102.91278
-401901.640982
27258710.7366
3711224.30593
150773.457994
1618174.6692
3330252.92538
2509329.99955
3272465.4694
6131966.66707
8258668.08618
1884285.01257
7763363.00727
5223821.37771
4639523.43612
-6853385.0162
13556598.6313
-54610632.6195
0
-4.90233121807e-07
-1.98941698054e-06
5165893.60705
3669249.68764
-57232266.0411
1.49918385874e-06
-4.90233121807e-07
0
6076368.74076
-3869311.54588
-12464870.0728
-2.45116560903e-07
0
-15467715.3053
11183582.255
-80864467.5165
1.49918385874e-06
1.00895073693e-06
-2.45116560903e-07
-4.90233121807e-07
0
12653052.5525
-14746417.6193
15241135.8569
-105644534.107
-2.45116560903e-07
-2713203.32962
9524983.03313
-22862243.465
-26308664.3791
-50185151.5054
-44086041.2371
-19194319.0621
-44260703.2218
-32147808.212
9227846.91185
16023269.3734
-72885072.7632
5199236.93599
8601151.04318
8054793.9631
8532519.89008
12727155.356
29836266.6617
3692682.26307
12212030.7877
VECTORS max_principal_stress_normal double
1 0 0
1 0 0
1 0 0
0 1 0
1 0 0
0 1 0
0 1 0
0 1 0
1 0 0
-0.127634361023 0.991092743474 0.03800846906
-0.397775880136 0.916371256607 -0.0451449803057
-0.135420694134 0.989781718702 0.04464733948
-0.0397881311762 0.998541926718 -0.0364818476015
0.748738615984 -0.624750244112 0.221534686713
-0.338838783905 0.933340955891 -0.118587261451
-0.47384122537 0.874537806543 -0.103238161873
0.705384002005 -0.537339879225 -0.462276177096
-0.688758081295 0.670729794465 -0.275197834779
0.721725769621 -0.657744866214 0.215600566869
0.00265039149601 0.98916742334 0.14676778948
0.141905864719 0.986066792918 0.0868044092407
-0.677599529997 0.715644477122 -0.169445741502
0.215397824315 0.967837896246 0.129975320237
0.389523971496 0.918063363628 0.0736935274886
0.263156529742 0.943250794445 0.202550190404
0.0646346814434 0.854682070652 -0.515112527571
0.532736654397 0.831219476009 -0.158952319154
0.534019450533 0.791086681807 -0.298337205725
0.458632234254 -0.418699045822 0.783803280633
-0.0538925886137 -0.557475581217 0.828442252205
0.119440055893 -0.30197158227 0.945805073231
0.786000710138 0.550373680407 -0.281587811488
0.819204157765 0.476372701514 -0.319333050518
-0.46754783251 0.361225433779 0.806793164514
0.05399643027 -0.333105206154 0.941342290111
-0.0696589486724 0.645145842522 0.760877436087
0.564352843521 -0.573145453966 -0.594146578386
0.295522628196 0.847579958 0.440765914087
0.319292934077 0.897081943338 0.305443954245
-0.14154838803 -0.105050218696 0.984341660908
0.289069128127 -0.435233090129 0.852649515581
0.288159952463 0.806691639841 -0.515957788979
-0.322892369334 0.0974475309878 0.941405596186
-0.282357471284 -0.135592183681 0.949678376154
0.212112785305 0.963125590083 0.165521189087
0.46446842329 0.876391452754 0.127307129831
-0.504847141599 -0.140555202434 0.851688674744
0.683003688245 0.177253529724 -0.708581080783
0.979415435306 -0.142169661713 -0.143294076545
0.790566479925 -0.105553670877 -0.603210629368
0.981156473882 -0.0756593567007 0.177785363579
0.898492607114 -0.425153018213 0.109343248836
-0.498191538208 0.773119294264 -0.392545217898
-0.0373207874554 0.99897028993 -0.0257976483683
0.100191533619 0.991203556563 -0.0864706079978
0.74100498977 0.665686813531 0.0881627553305
0.665427050465 0.740950678875 -0.0905479540589
0.713975000565 0.689312290742 0.122834296516
0.920721954589 0.388362026634 -0.0380265513485
0.787214047938 0.35093811995 0.507086263563
0.81243054826 0.551510315102 0.189190318437
0.357060957167 0.573457152648 0.737329212051
0.710735674334 0.633164054148 0.306525825607
0.7231089553 -0.650708613531 -0.231714779506
0.107903387359 -0.261821993528 0.959065223382
-0.523599459819 0.769068135342 -0.366575788723
-0.586581219901 0.765498437518 -0.264451535477
-0.037791949143 -0.679163913003 0.733013061176
0.934284226967 0.193290942823 0.299585705038
0.726714357971 0.458029822143 -0.511952071924
-0.14848229259 0.917615520689 -0.368693321037
0.682280240721 -0.0391938346546 0.730039393763
0.284426532865 -0.350232603667 0.89243412683
-0.12765599763 0.976583412224 -0.173172703504
0.90924024186 0.208419634135 0.360337950666
0.798027185883 -0.426471660654 -0.425763471015
0.859900748592 0.153891635878 0.486711482274
0.88430548541 -0.461098803335 0.0734282100857
0.910265962557 -0.412997893396 -0.0291310394593
0.909076096417 0.167140138516 -0.381634412783
0.769545908079 -0.623889008754 0.136240963422
-0.670892548189 0.725360964036 0.154125470436
-0.143871823037 0.95437211234 0.261676842163
-0.135642096592 0.980118883722 -0.1448039896
0.779785889855 -0.613950580231 0.122468979813
0.827731078808 -0.551824093635 0.101741981793
-0.615930649984 0.765257661018 0.187109985472
0.873219432914 -0.146621960319 -0.46474705242
0.656503770461 -0.667118800294 0.352072869822
-0.66781541521 0.733718146025 -0.125220818564
-0.369332041416 0.925313862487 -0.0859540521047
0.0018973019583 0.999448690971 0.0331468605192
0.978702908454 -0.203550243971 0.0266066751731
0.978225210769 -0.180088242767 -0.10316812411
-0.613600670161 0.66838606267 -0.420421560826
-0.38074240703 0.918368517399 0.107863273356
0.829195341907 -0.401387359717 -0.389002920837
0.781895701704 -0.331381513091 -0.528039207293
-0.617311702379 0.217364001982 0.756094671816
-0.467737354925 0.128036562087 0.874544684723
0.987952080286 -0.070971854767 -0.137527026034
0.913976038083 -0.310420776477 -0.261317323079
0.744565075127 -0.272089030857 -0.609582158687
0.892984348139 -0.189033459863 -0.408467018289
0.899360350479 -0.297529852883 -0.320354407851
0.979126105427 -0.19829593166 0.0446183051985
0.978549281427 -0.200397680288 0.04777105351
0.996543826754 0.0817456636412 0.0147664428463
-0.306080642698 -0.274411723976 0.911599059845
-0.361419478166 -0.316713965676 0.876965349799
0.670588391239 -0.660186234089 0.33832727625
0.958592847105 0.0205503988174 -0.284037734443
0.924841233328 -0.296603246115 0.238107554543
0.954265822541 -0.20928980692 0.213481888343
-0.67619089957 0.736651095446 -0.010537120857
0.783614798141 -0.620966720295 -0.0186595932663
0.704597231172 0.317747721745 -0.634491234889
0.594092841455 0.327779733495 -0.734584332831
0.906849686464 -0.0936832668272 -0.41091007736
0.998001356298 0.0494029715185 0.0394035434038
0.999637078875 0.0024144737983 -0.0268305955005
0.999452826223 -0.0288471862668 -0.0161829539609
0.967048047193 -0.1374767132 -0.214285388554
0.792295930765 -0.356454845051 -0.495183906779
1 0 0
1 0 0
0 1 0
0.731168468114 0.0458212334358 -0.680656363962
0.987282163257 -0.127094344704 0.0955037049489
0.997334443286 -0.0573201886716 0.0451486899778
0.995918650715 -0.0601438114312 0.0672960853534
0.966942526048 -0.072729850973 -0.244402373346
0.821103135857 -0.294614327361 -0.48886811964
-0.495428947312 0.0325384407899 0.868038828645
0.725614584223 -0.0582407537311 -0.685632182564
-0.686318947835 0.123865161903 0.716675465961
-0.499494735924 0.116492821395 0.858448851911
-0.285580626626 0.069946547021 0.955798716392
0.905228722401 -0.373109643054 -0.203347373722
0 1 0
0.880730821241 -0.190634733287 -0.433556938569
-0.22281201078 -0.0586346151793 0.973096495603
-0.421740844636 0.104205774418 0.900708508089
-0.487456733883 0.103976790557 0.866934114923
-0.340507913391 0.0368635784004 0.939518726533
-0.465871349796 -0.0119394191317 0.884771911687
-0.562404258496 -0.327745051518 0.759134132569
-0.529493592997 -0.241316515501 0.813266791602
-0.707106781187 0.707106781187 0
-0.68504813132 0.728487793137 0.00382008172452
0.856980569558 -0.37446425811 -0.354063303378
0.844019964506 -0.208538040507 -0.494107463186
-0.554389341659 0.146130719439 0.81932793843
0.738946854694 -0.0693600064427 -0.670184105634
0.78630506696 0.125138726505 -0.605032760106
0.949199010723 -0.177949982869 0.259528498705
1 0 0
0.820951886036 -0.0562932163681 -0.568215693734
0.783583828363 -0.137759128909 -0.605820770797
0.915641258263 -0.21117799748 -0.342059847902
0.886249721895 0.422147109728 -0.190665277879
0.861681548718 0.216840597017 -0.458786512535
0.783624397882 0.0291851865045 -0.620548973033
1 0 0
0 0 1
0.919735051116 -0.0843803829625 -0.383363256873
0.913055665556 -0.0665611696544 -0.402366701268
0.95114265198 -0.162740893141 -0.262379605312
0.940899635817 -0.127594517548 -0.313731596132
0 0 1
0.987854599549 -0.0814631973952 -0.132314162584
0.989970847151 -0.0550237862223 -0.130115735949
0.996069920531 -0.0872237568717 -0.0153860212529
0.9987223531 -0.0335329684424 -0.0378047807251
0.969418802132 -0.206575690222 0.132490264858
0.965841886606 -0.23164758991 0.116141483401
0.938393886914 -0.157316163098 0.307682527664
0.987452411738 -0.0935581955255 0.127218703824
0.985327419282 -0.161304252133 0.0557746811231
0.986136692188 -0.111019532711 0.123325129948
0.994445866422 -0.0767355475087 -0.072035230991
0.995207467675 -0.0752878088181 -0.0624006580723
1 0 0
0.976643798113 -0.166526902919 0.135778062337
0.981370664044 -0.0912011962979 0.169097491255
0.978634084431 -0.120477655654 0.16661471507
0.990103617173 -0.0666610600456 0.123495466858
0.957373647581 -0.12154695063 0.262034420848
1 0 0
0.977880846438 -0.0872192224199 0.190110119169
0.962785403863 -0.142711473358 0.229516233586
0.978307336668 -0.0730345584851 0.193857443212
0.502105553394 0.856870137213 0.116891322194
0.933531400984 0.219046543639 0.283791710762
-0.427416017811 -0.584997876945 0.68926992658
0.806549235121 -0.249660490949 0.535861895067
-0.255456175628 -0.134379153089 0.957436361096
0.986101567604 -0.147251281766 -0.0769464644243
0.782635061782 -0.365126150507 0.504148047984
0.945138449525 0.183866056342 0.270012193343
-0.483657022208 0.662346366478 -0.572165339462
0.186385933637 0.228796259726 0.955464575627
0.981362955815 -0.188714585234 -0.0362429893056
0.354348669659 -0.221526975502 0.908494809801
0.111731581266 0.986357241902 0.120894355099
0.559051509874 0.827583640588 0.0506628773239
0.914304873963 0.13952177603 0.380237125307
0.875244763066 -0.0404352250659 -0.481987133956
0.762386539919 -0.29912756088 0.573837490996
0.716184859566 0.160781833918 -0.67913801897
0.870688329674 -0.343022158124 -0.352473589939
0.0661645220902 0.946658405893 0.315372983257
0.788764329911 0.572112638343 0.224806496587
0.794505046686 0.523464098275 0.307810117779
0.965718946653 0.259575633761 0.00272147639271
-0.638795422574 0.763534008118 0.0946373422405
0.770421756052 -0.637464170972 -0.00947356996604
-0.14349197653 0.965808663936 0.215925166058
0.809196833354 0.533019242918 0.247165878653
0.50193040481 0.786585766089 0.359650804689
0.846179770235 -0.400651001362 0.351366719473
0.802484218179 0.472465049742 0.364411657809
0.991040107988 -0.0637398595724 0.117374335616
0.885538808057 -0.36785764019 0.283728348916
0.765896698805 -0.642963201261 -0.000754045603043
0.751022425635 -0.64218919789 -0.153487296888
-0.292558332252 0.840222535229 0.456547602692
-0.656393832106 0.749612542459 -0.0850186647805
0.950219070695 -0.258287067478 -0.174274233497
0.874162894341 -0.128839881745 0.468230198758
0.863285669616 -0.477358392941 -0.16391100428
0.734782488507 -0.433166028476 0.521978817921
0.516677011531 0.242815842889 0.821026998459
-0.533402930807 0.494836745645 -0.686015968157
-0.624944866887 0.723583452516 -0.293037370649
0.758876843609 -0.326959250268 -0.563208296191
-0.582758814409 0.801016373094 -0.136985160742
0.840824173802 -0.454294659076 -0.294331567259
0.887965967612 -0.305772720137 -0.34353963961
0.758987833166 -0.373391627661 -0.533400563835
0.849284741432 -0.478388523213 -0.22329319029
0.967774404869 -0.233364522189 -0.0946239983499
0.794744814414 -0.250040060165 -0.553046696288
-0.444749869448 0.847514221046 -0.289684653979
0.987298744632 -0.158382187996 0.012500854916
0.92948207107 -0.368723082129 -0.0103134991462
0.849286219838 -0.311901346702 -0.42594655383
0.880795886979 -0.239492813992 -0.408462724771
0.298578333273 -0.571835918198 0.764103829043
0.544119071441 0.833994616302 -0.091582837222
0.973258334883 -0.0103255563504 -0.229481146214
0.982324230325 -0.0030755216029 -0.187162089333
0.887423425871 -0.147474860419 -0.436727407842
0.981670587119 -0.186223396681 0.0405426308135
0.981570041477 -0.155370130762 -0.111267138643
0.93603258524 -0.134687633375 -0.325118810259
0.972982487945 -0.165374352577 -0.161109905537
0.895306785381 -0.14068412984 -0.422650843679
0.97301169283 -0.192854286597 0.126710180162
0.967343661331 -0.169903612563 0.1880930709
0.989305467561 0.111333356704 -0.0942314997148
0.991601845704 0.0662797289295 0.111053037462
0 0 1
0.0519470854896 -0.353375529071 0.934038133998
-0.375527227155 0.903553289975 -0.20632681319
-0.446149880754 0.881176043741 -0.15645786602
0.972254110267 -0.0757302690716 0.221329779776
0.313839563727 -0.367822620468 0.875334934817
0.0941247965999 -0.104010973004 0.990112236143
-0.317880929055 0.845862109827 -0.42833282165
0.24692357106 -0.450418311643 0.857993062089
-0.178840207065 0.906786974349 -0.381776850383
-0.344460955854 0.869375996103 -0.354304991909
0.58660220612 -0.533357130552 -0.609448950335
-0.0936135296178 0.98411504663 0.150844562612
0.745729935349 0.518225397224 -0.418723418496
-0.529983486332 -0.406371600851 0.744298076202
-0.548809733426 0.728776136839 0.409503624979
-0.301995270477 0.910252362474 0.283265764292
0.638438168383 -0.45419520634 0.621372207046
0.00824398608783 0.936387392092 0.350871327733
-0.206030515085 -0.318670970055 0.925202810036
-0.34925723275 0.887152495402 0.301628638019
0.76560728974 0.486616205628 -0.420773271867
-0.274090166289 0.930308541004 0.243722381571
0.718095065248 0.128399662702 -0.683997809854
-0.4529615613 0.811493188572 -0.36919456779
0.142052203355 0.989660171891 0.019847309508
0.275021943412 0.96104581021 0.0274568993056
-0.0263456981298 -0.362908282349 0.931452351327
-0.373102631752 0.831868321281 -0.410840020238
-0.192557196358 0.817778916223 -0.542364610121
0.848648819868 0.129020072452 -0.512980507858
0.105768767201 0.966848694364 -0.232414651199
-0.354852745864 0.934182169641 -0.0371914328587
-0.135518553658 0.95944408618 -0.24718771634
0.171646337248 -0.554004074873 0.814626920702
-0.409255845713 0.615760772732 -0.673311461
-0.311008705087 0.81805647805 -0.483794568056
-0.147873714051 0.967903134346 -0.20321635568
0.101242399818 0.947809657996 -0.302335622592
0.110535928169 0.993098385605 0.0392097576156
-0.00233944506132 0.922036223726 -0.387096537228
-0.696618875299 -0.165632766299 0.69806011869
-0.314355795562 0.794596492914 -0.519419721657
-0.115142684248 0.985310695213 -0.126115011648
0.969703064756 -0.233026631054 -0.0733113594406
-0.0639146377987 0.919075859458 -0.388863065405
0.262876486487 0.81836358004 -0.511054795219
0.427131024553 0.666042832053 -0.611511270325
0.153480979608 0.885768213889 -0.438016278421
-0.13607869537 0.778143211471 -0.613168599252
0.251049026753 0.897005515094 -0.363806943387
-0.473794064142 0.838806959196 0.268182903983
-0.118448549064 0.992831074044 0.0160124838027
-0.00108713293051 0.998186222778 0.0601920493
-0.360986658982 0.932390429418 -0.0183499091583
-0.383798269281 0.922626933341 -0.0381894012772
-0.498771406086 0.866223330369 -0.0297359444849
-0.491339701021 0.869823533023 0.0446354074741
-0.0353569007863 0.99933706648 0.00867854394877
-0.347752439923 0.935056454595 0.0688307144244
-0.400356896662 0.915981754457 0.0263017261438
-0.26036891759 0.96487371581 -0.0350248382154
0.00788969140772 0.997887036943 0.064491970586
-0.577432978779 0.815858656918 -0.0307539745344
-0.278598760341 0.960240026241 0.0179394186659
-0.56563492144 0.820813890821 0.0795090704429
-0.161269398411 0.9857847053 -0.0471242605527
-0.689265658742 0.719492489464 -0.0851082210147
-0.673553310023 0.739133020139 0.0028839375839
0.806101823145 -0.590363498548 -0.0408753018858
-0.661572779764 0.747553148653 -0.0590402152186
-0.599527048016 0.788475556354 -0.13738127867
-0.589166719266 0.803058556423 0.0893282254614
-0.516227732718 0.842977089966 0.151322680936
-0.514563300541 0.856918154101 0.03026362351
-0.14328403202 0.989626135977 0.0104784139806
-0.141298624147 0.987960623 -0.062996080959
0.167878826043 0.979853024167 -0.108188496598
-0.678621906422 0.731582294201 0.06526603202
-0.644014100116 0.762063132281 0.0671239247184
-0.136799103624 0.0953136781117 0.986002691686
0.02600385491 -0.00978015903455 0.999613999511
0.794336257656 -0.597857771853 0.107684699046
0.737067607165 -0.672514892384 0.0667462507505
0.749190995557 -0.661861059082 0.0255497680228
0.711182902089 -0.697203955587 0.090141688966
0.740253394605 -0.640693675428 -0.203805117804
0.799527176736 -0.591055332522 -0.106817075214
0.739931770308 -0.646942880573 -0.184298357464
-0.135622413805 0.981218084861 0.137177369913
1 0 0
0.2751948612 0.0893330179471 0.957229021851
-0.18557363897 0.168205339941 0.968126741773
-0.089412393114 0.143011325471 0.985673974874
-0.317961676863 -0.143151399375 0.937234255084
0.953684836324 -0.300433929623 -0.014989559596
0.785811357314 -0.588258152393 -0.190926312643
-0.421900302122 0.887953682188 0.183134904806
-0.260273914209 0.963293736127 0.0657469962879
0.962395166507 0.195396251136 0.188721616476
-0.115502194436 0.823744356974 0.555071596674
-0.0933545833871 0.995232462194 -0.0282359337658
-0.11641842453 0.966555517423 0.228510792239
0.145346043855 0.989083298506 -0.0242642979091
0.168331925024 0.947285729799 0.272606142881
0.134429148245 0.941329766221 0.309559485928
0.309098173634 0.950484708656 -0.0322046218276
0.360874579647 0.931855838678 0.0376062984856
0.104761798513 0.994220948644 -0.0234450602575
0.219709372346 0.970728196437 0.0970286573378
0.231095318003 0.950050653167 -0.209758695683
-0.625786895291 0.757889653059 -0.184374714828
-0.642674465424 0.630914616283 0.434645002791
0.241284722057 -0.360676100312 0.900940860193
0.62231629366 -0.160255359556 0.76618578059
0.156207462161 0.900605760186 -0.405596466312
0.923697839644 0.31199324721 0.222356728553
-0.112683298107 0.734168387396 0.669551531457
-0.606760942312 0.629961523534 -0.484757297781
0.212584844724 0.947703579918 -0.238045391478
0.336679635579 0.927273623252 0.163738970947
0.441010460508 0.883496119546 -0.157937900678
0.418915147567 0.900891115834 -0.113601481282
0.152679059615 0.978784911255 0.1366352892
0.177069721695 0.977816881355 0.111894862237
0.202452393477 0.901036088068 0.383597440522
-0.0941638748667 0.978936768849 -0.181151779636
-0.125453473509 0.988914460664 -0.0794330880307
0.447398351636 0.891456007265 0.0717000841353
0.20615942578 0.958758255765 -0.195655048912
0.000300196100781 0.999740766433 0.0227664185631
0.248449046289 0.968386911288 0.0223575813586
0.829140263673 0.3894511503 -0.401066359455
0.098865755623 0.981595838609 -0.163386572244
0.298973640142 0.952337870939 0.0605585838314
0.295573191885 0.9498960169 0.101656506516
0.430124460458 0.891348933272 -0.143143381512
-0.578864641615 0.678381713924 -0.452453286984
0.685490915894 -0.595024521773 -0.419580770194
0.917470002403 -0.37800809421 0.123930123065
0.691679324166 -0.348487734206 0.632563049529
0.273527930307 0.912222274357 -0.305013103831
-0.063518586669 0.872855648405 -0.483826834926
0.552873933067 0.795834404221 -0.246937269752
0.515633396157 0.809737037242 0.280085935537
0.727037209264 0.652147772118 0.214756093433
0.774895668768 0.630591091287 -0.0434922764889
0.0628316556214 0.978784303241 -0.19502171874
0.682215909157 0.701855039603 0.204892549101
0.81790289735 0.488792249091 -0.303507805066
0.883122972645 0.465456280679 -0.0586878689564
-0.624185465775 0.698430409974 0.350124930189
0.255309839502 0.966451307512 -0.0280848012503
0.820810350597 -0.434065743297 -0.371291393448
-0.288341628754 0.917199182484 -0.274963206226
0.806679633331 -0.555465650309 -0.201806542253
-0.625200002762 0.640952291279 -0.445314626809
0.264866879748 0.874139710788 -0.407093726354
0.544832691492 0.698930052496 -0.463307802653
0.192807137327 0.878286082137 -0.437537387797
0.738889943219 -0.293826676468 0.606388931302
0.883967900768 0.458986523711 0.0890624582182
0.199834013828 0.969641685207 -0.140930370135
0.464033855809 0.0710661960518 0.882962160255
-0.44423618229 0.0918764145128 0.891186253709
-0.440577987525 0.896653950716 0.0436202885453
0.793461987354 -0.365691011644 0.486506072549
0.870680342187 0.485606592923 -0.0781151626711
0.983429144533 0.180417057248 0.0177989645149
0.401368697296 0.908279817256 0.11802941327
-0.597208550799 0.801412947595 -0.032851701324
-0.394924736974 0.908731075111 -0.135064004289
0.886146278089 -0.387815666254 0.253660763298
-0.140798956146 -0.317957636502 0.937591913008
0.959748530826 0.213700583631 -0.18224932958
0.977239652092 0.198425335088 -0.0750336509478
0.0636995551781 0.990742610986 -0.119880963657
0.109318206853 0.936478404827 -0.333253247462
0.631218856763 0.771607653174 -0.0786408572496
0.230733290913 0.439912874075 0.867893318149
0.521055261383 0.315226433956 0.793179494138
-0.42472665539 0.694302787503 0.58099131445
-0.394312918008 0.824528612918 0.405795378451
0.253642167964 -0.0268210546324 0.966926202799
-0.312863094714 0.890382980915 -0.330658178884
0.49464190922 0.744671290866 -0.448100491187
0.895652843059 0.281498750811 -0.344331871908
0.99745211043 0.0645140660256 0.0304503314216
0.998031003155 0.0624950072499 0.00533767837247
0.999729701735 0.023215385464 0.00125273545718
-0.673686461684 0.679420325774 -0.290748297103
0.011711191463 0.643521606026 0.765338350386
0.698572562204 0.205235017971 0.685474261176
-0.213920051717 0.928682071289 -0.30296505069
-0.341475177393 -0.520073518349 0.782890949453
-0.624097470944 -0.267164380629 0.734251687424
-0.667008183368 0.0664553071253 0.742080706847
0.992286524819 -0.123864430265 0.00500555471389
0.985398314661 -0.0390512208355 0.165726170581
0.99924677403 -0.00119081445117 -0.038787453524
0.613055137502 -0.681796200441 0.399145762156
0.441871052388 -0.609158807781 -0.658540446719
1 0 0
1 0 0
0.432968522607 -0.500463454335 0.749716339229
-0.260444474308 0.490770675937 0.831452235214
0.644949421362 0.455333579929 0.613768339745
0.508263571939 0.617678163772 0.600118177894
0.94783503005 -0.311737570678 0.0665465464053
-0.604306323102 0.726869793831 0.326303801197
-0.483648207825 0.841345372346 0.241293131896
0.813040709309 -0.542401958301 -0.211577221454
0.574453557195 -0.509946901423 0.640279055065
0.507682135666 -0.31632153873 0.801373529174
-0.493179072785 0.252548689456 0.832462348471
-0.0777805045709 0.0961557910456 0.992322657686
0.22745579284 -0.185553672058 0.955946492796
0.458659977072 -0.287165971402 0.840932060455
0.955245365164 -0.271503296979 0.117440419201
0.963483607996 -0.246250134014 0.105167526457
-0.445696904402 0.867021373042 0.222773894554
-0.394770368877 0.875027627725 0.280148186813
0 1 0
0 1 0
0.436532576904 -0.298861177381 0.848599614633
-0.232055887416 0.160561989257 0.959359115619
0.0474939609783 0.153880384774 0.986947390114
0.0694978704232 0.0530611449146 0.996169945796
0.601608689897 -0.281654583276 0.747487578465
0.975377552766 -0.220158770366 0.0129902036983
0.973526818127 -0.199782503898 0.111051724545
0.972640113027 -0.20353418159 -0.112004676037
0.976816116418 -0.0448295247288 0.209333677221
0.991243607504 0.09636486248 0.0902769287389
-0.223945295599 0.121624449538 0.966982935658
1 0 0
0 0 1
0 0 1
0.842069974046 -0.392040005998 0.370435949265
0.40971229038 -0.553328318321 0.725233487407
-0.283886517276 0.079537689579 0.955553348194
0.263296792238 -0.1721965939 0.949222382926
0.352713480365 -0.116148044502 0.928494928649
0.237106924906 -0.0117520424985 0.971412474523
0.703363643605 -0.0380927778399 0.709808794769
0.88615971171 -0.388814798056 -0.252079388597
0.828795240193 -0.55055795171 -0.0999219277384
0.613298965879 -0.124241192191 0.780018271975
0.860801598872 -0.295663273887 -0.414250933437
0.929137156728 -0.185109389717 -0.320060397155
0 0 1
0.845036046765 -0.321129683777 0.427539244824
0.237735656389 0.183301539002 0.953877509684
0.939943148925 -0.301268527811 0.160449839327
0.963144175201 -0.0844921465274 0.255371053473
0.995733502538 -0.069527784156 0.0606686010468
0.9869598188 -0.0551228863417 0.151234200748
0.923695718291 -0.289986893428 -0.25038734323
1 0 0
1 0 0
1 0 0
0 0 1
0.460441556047 -0.070678428553 0.884871817385
0.942601187114 -0.260284055428 0.209177466618
0.937468632827 -0.185417350894 -0.294572518156
0.960185033845 -0.164249253146 0.225979830119
0.79203261216 -0.429935824672 0.433404577662
0 0 1
0 0 1
1 0 0
0.797672997426 -0.086931486091 0.596792012264
0.909876824962 -0.289870435675 -0.296815252166
1 0 0
1 0 0
1 0 0
0 0 1
1 0 0
0.911564584454 0.201486311837 0.358403786965
0.718809204192 0.691192165432 -0.0746104444054
0.980559045332 -0.149313898111 -0.127315821677
0.769784724449 0.149596581457 0.620525858302
0.981401450888 -0.0576282560614 -0.183112468984
0.85315861422 -0.202991662746 -0.480535913161
0.894970013337 -0.0576631186248 -0.442384041278
0.357907465197 -0.00225299579005 0.933754341552
0.409020701076 -0.240023563877 0.880392386879
0.984577840842 -0.171697265671 0.0335637346551
1 0 0
0 1 0
0 1 0
0.579040083191 0.778724945826 -0.241454013853
1 0 0
0.842910835855 -0.220372333865 0.490853702507
0.630335852487 -0.0304904416341 0.7757235629
0.534497145314 -0.158971966512 0.830084764054
0.562251808951 -0.198475023767 0.802795471008
0.488388886015 -0.151108131453 0.859443208494
0.849895673447 -0.0786675281903 0.52104583701
0.735816121418 0.305193320555 0.604509447858
0.737763328843 0.0877789094759 0.669328121078
0.934897308213 -0.354308732612 -0.0207929096526
0 1 0
0.804062674321 -0.424306463011 0.416469976362
0.928682003227 -0.245835305125 0.277695408021
0.976195891485 0.0551998540578 0.209748796323
0.854337550004 -0.112817577422 0.507325876413
0.720694532012 0.168991912376 0.672340036796
0 1 0
1 0 0
0.85398665088 0.0647536464499 0.516249712242
0.970758947725 -0.119409014175 0.208251177055
0 1 0
0 0 1
1 0 0
0.93984670278 -0.124539874701 -0.318084886287
0.722875969823 -0.654390554788 -0.22186332292
0.987900807437 -0.106231518071 0.112990527184
0.967805488418 -0.216862064328 -0.127762990118
0.895844722615 -0.0865544471668 0.435856123782
0.977852077416 -0.109056798435 0.178639103807
0.9930508118 0.0092071041259 0.117325676715
0.983748702854 0.141300229909 0.110782375227
0 0 1
1 0 0
0.993881274871 -0.108453017603 -0.0209273608763
0.992853479073 -0.116085228982 0.0276801138853
0.981624652575 -0.118893426196 0.14925613778
0.987586770787 -0.139344429187 -0.0724948289195
1 0 0
1 0 0
1 0 0
0.990954200278 -0.126941080721 0.04354003878
0.986320026169 -0.157658729967 -0.0481303526227
0.998001355004 -0.0617382197922 0.0134791552508
0.303699029248 0.927531949864 -0.217833380397
-0.0544721487784 0.810218969328 0.583590615713
-0.338098683022 -0.472548917984 0.813871489027
-0.689220979264 -0.113937463109 0.715536649126
0.753622469591 0.386127586245 -0.531938587121
0.948905817482 -0.293975432841 -0.114700455248
0.991050275473 0.0933076929433 0.0954621701072
0.667953404256 0.625185739429 -0.403709104378
-0.398894486648 0.627366978762 -0.66880031585
0.463797098601 0.883443150497 0.066486473579
0.70409768548 0.389246406381 -0.593913869531
0.789523517349 0.113237118985 -0.603183198073
-0.528545075193 0.123175746977 0.839921328962
0.628134092574 -0.537331713067 -0.562780767154
0.794581418382 -0.534948103287 -0.287177464908
0.981144585854 -0.191767304446 0.0240956966209
0.988398934978 -0.11046735216 -0.104232957555
0.974141147878 0.16795522626 -0.151129302197
0.25763644624 0.934225325706 -0.246670838121
0.770649810934 0.542063826222 -0.335060706753
0.719895419772 0.320206190924 -0.615807258715
0.40333919135 0.689806385735 -0.601235932825
0.975331895168 0.0518710386752 0.214562554081
-0.443511675 0.826886075538 0.345769883333
-0.421194622584 0.906933479855 0.00817025242091
0.959440234918 -0.278506343904 -0.0436881222498
0.469788125831 0.560222499449 -0.682238864284
0.147979800927 0.634724986409 0.758436661921
0.678199381501 -0.127065788243 0.723809287306
0.846484816234 0.0632111715444 0.528647144774
0.699857822517 0.387385460894 0.600109600781
0.700676754869 0.376566459919 0.606011374852
-0.302453903341 -0.0857273786821 0.949301033865
0.475037901007 -0.0113847549421 0.879891686494
0.975374252115 0.0940738128892 0.199487307967
0.124056038103 -0.705265837571 0.698004439646
-0.0310653471985 0.930730096676 -0.364385004281
-0.433903922693 0.690282319167 0.578997155189
0.898651438358 -0.35677517898 -0.255219638746
0.813159412467 -0.364028809873 0.454152832754
0.773919615457 -0.605740390591 0.184734966958
0.834643964502 -0.486573866916 0.258099447024
0.794314989139 -0.417902844578 0.440931866078
-0.305168250534 0.420683583715 0.854340483214
-0.56086663198 0.738287634827 -0.374646485894
-0.549340342765 0.666174048934 0.504417807317
-0.514204110507 0.85748814884 0.0175558348188
-0.473573361408 0.872578456712 -0.119729312394
0.710787623994 0.0992159711849 -0.696374284878
0.778490117864 -0.616627035759 -0.117150480834
-0.588504843414 0.798745003862 -0.125173751576
0.907312125286 -0.327950063859 0.263122524546
0.934300291941 0.0747383920152 0.34856439468
0.973303427608 -0.16174901711 -0.162842541341
0.99389141363 -0.108962135152 0.0175245832019
0.495511391988 0.211017502679 0.842579417012
-0.61593275734 0.307917148803 0.725130242031
0.873323574617 -0.384117290083 -0.299599468421
-0.580417711098 0.644584412682 -0.497620553807
0.989600621526 0.141083003397 -0.0280391873512
0.962553623277 -0.256169992034 0.0886986893804
0.763762070563 -0.546501572278 0.343516420373
0.815234188883 -0.486747675074 0.313799168396
0.932770166477 -0.251802972003 0.257943947051
0.852577671853 -0.375231781998 0.363747746709
-0.635274619517 0.572765263772 -0.518040645523
0.690698998956 -0.200846093413 0.694691110928
0.853964819632 -0.485218695436 0.187901315672
-0.52895189514 0.428051922896 0.73279017729
0.962372763291 -0.215513278854 0.165507374799
0.834817213539 -0.331285422148 0.439693289751
0.976721879454 -0.202696012946 0.0702046760003
-0.657193331717 0.627906365263 -0.416929875648
-0.536931247562 0.531161533192 0.655417623388
0.941431901777 -0.335326532606 -0.035525917954
0.937659082609 -0.151597193674 0.312751875568
0.584477839208 -0.338349842869 0.73749917919
0.703880932302 -0.452973274777 0.547144263864
-0.552755152935 0.592459500298 -0.58604904352
0.937772053928 0.345768649214 -0.032056451663
0.891441088164 0.0673218689527 -0.448107746299
0.981604475518 -0.186903718789 0.038982733954
-0.390753212963 0.169554922929 0.904744745588
0.378096209539 -0.196487248743 0.904674536733
-0.0194393507782 0.0239852917365 0.999523295087
0.34680908184 0.00415377221298 0.93792654666
0.946136415202 -0.217384442351 0.239937258575
0.922206402493 -0.116181379834 0.368832262933
0.507474491979 -0.147740083909 0.848906654231
0.731841929734 -0.129176687651 0.669119401341
-0.680029261248 0.103885515114 0.725787850267
0.943303710047 0.0430857284462 0.329122668036
0.928354572615 -0.174245463411 0.328323477664
0.94607535416 0.0203463842181 0.323307050497
-0.495502770863 0.113291293798 0.86118644138
-0.423349753164 -0.0194061274295 0.905758460471
1 0 0
1 0 0
0.972409613056 -0.010214647206 0.23305622802
0.990655952274 -0.132833830175 0.0309185670059
0.99394555232 -0.0934093791994 -0.0578526308814
0.99485672307 -0.034799755038 0.0951266398676
0.996125852146 0.0878739173885 -0.00338545851668
1 0 0
1 0 0
0.636206899119 0.636436931968 -0.436106424098
0.623297497034 -0.476568480049 0.619986059533
-0.466141667881 0.572312575266 -0.674663072694
-0.128770126225 0.968726399565 0.212102374758
1 0 0
1 0 0
0.830491931952 -0.265283340076 0.489803940818
0.946369169641 -0.193598159161 0.258660293672
0.985324032614 -0.140878986772 0.0963828918445
1 0 0
0 0 1
1 0 0
1 0 0
0.942670632054 0.134257429775 0.305527448869
0.972721249823 -0.182732419815 0.142906378063
0.923107443187 -0.108183722288 0.369010745867
0.955988610256 -0.162020237764 0.244612386471
0.95200733182 -0.157408167157 0.262497064885
0.952207256203 -0.175701363632 0.249860705297
0.958582457224 -0.129481183888 0.253681484782
0.943151784232 -0.197519402778 0.267302819713
0.974379680114 -0.126639581267 0.185867305994
0 0 1
0 1 0
0.961108641862 -0.0890919705605 0.261405430929
0.998356846231 0.00189017532215 0.0572715882476
0.945606760312 -0.182541612668 0.269270151515
0.947529680062 -0.200791910222 0.248737038239
0 1 0
0.965809349861 -0.131357568029 0.223511720144
0.932527616193 -0.124422701803 0.338985598975
0.888348192406 -0.140345422043 0.437196353554
0.917125776623 -0.233347967443 0.323154817298
0.892590307155 -0.201135816168 0.403518186737
0.899592086854 -0.191561343795 0.392477169824
0.395211382111 -0.186954813645 0.899364142661
0.80404706564 -0.216889908959 0.553594692557
0.796496574014 -0.22825964568 0.559902439482
0.942983527394 -0.0877814293338 0.321055272076
0.960330583869 -0.11069416652 0.255953064416
0.895902795779 -0.0960209098852 0.433748965856
0.890862594114 -0.112718691023 0.440066284897
0.102873988465 -0.159260913309 0.981861957706
0.342032324011 -0.100275933031 0.934322549544
0.681831436168 -0.231877663418 0.693785731953
0.70861800601 -0.166911608421 0.685566216009
0.873185600939 -0.136282250586 0.467946636369
0.842471169139 -0.122898700544 0.524536212834
0.954933558228 0.283877096661 -0.0866930986923
0.450308245727 0.00761729068361 0.892840669276
0.575515080866 -0.0430590124729 0.816656790298
0.733873151863 -0.222111987753 0.641947398056
0.794601477235 -0.111951192592 0.596720556754
0.927943392528 -0.0800522789913 0.364022929075
0.31092901629 0.138036349335 0.940355843865
0.579869130166 -0.0931690380344 0.809364764635
0.698642119873 0.058103937462 0.713108070906
0.745604564263 -0.103615951832 0.658283805267
0.727837959507 -0.110590205756 0.676773012975
0.841583144202 -0.0801566992925 0.534146716692
0.853130906039 -0.0504708695694 0.519249793919
0.490141798017 0.163484956276 0.856173864883
0.689419135048 -0.0847899877976 0.71938300939
0.589537594753 -0.0477577088973 0.806327864838
0.629179203654 -0.00132100187941 0.777259148961
0.603800875303 -0.308657595922 0.734952373602
0.976936649032 0.180781990391 0.113633866997
0.97258269536 -0.230999482272 0.0268726603726
0.63252964421 -0.0698367327844 0.771381280529
0.691906854891 0.00665668913722 0.721956087754
0.599263207779 -0.0449994742584 0.799286341131
0.583234556791 -0.0161798334451 0.812142638183
0.666757981957 0.0431837156407 0.744022150343
0.527967711305 -0.0590284918822 0.847210559994
0.963647447062 0.191243093146 0.186573516596
0.96987810486 -0.0573474586831 0.236744019346
0.390298338777 0.0371076353113 0.919940340538
0.335601473605 0.00329368301729 0.941998302847
0.503667104876 0.0194112320066 0.863679715831
0.383457086621 -0.130785820545 0.914251459864
0.772150323055 0.505944601601 0.384452778267
0.642187446379 0.748125044517 -0.167045507211
0.667595563214 -0.110823598576 0.736229783407
0.797949860564 -0.208682418861 0.565444664034
-0.676657691698 0.712586661627 -0.185349987692
0.985158116829 -0.161200685153 0.0589730781944
0.9948260467 -0.080828114327 0.061546346292
0.98516690365 -0.129438320984 -0.112658302018
0.981992682307 -0.0452007331803 -0.183431910028
0.990325918479 -0.137437064088 -0.0191214174037
0.995469818 0.0864961486645 -0.039474773183
0.957690347047 0.143492146528 0.249477860857
0.993393065457 -0.00231412285088 0.114738233982
0.969665143891 -0.0125245308072 0.244116047918
0.941033534461 0.0259625285983 0.337315629832
0.625006013776 0.586343962807 0.515333134994
0.999937983897 0.0111367577946 -3.13939942313e-05
0.939311311108 -0.104500717773 0.326762698008
0.907183713859 -0.249908681562 0.338472096618
0.900116309484 -0.13377450798 0.414602231561
1 0 0
0.922152529332 -0.0338985848959 0.385338291102
0.909405767616 -0.07831025573 0.408471117308
0.880663971854 0.106289071544 0.461663949154
0.898141956625 -0.0463011754181 0.437261051209
0.917690614781 0.0958330327552 0.385564476289
0.779672975367 -0.208737552064 0.590371650607
0.820197978414 -0.0124060998685 0.571945246411
0.839355540365 -0.0606673100035 0.540186777286
0.773275750507 0.0811430030555 0.62885644366
0.774771266277 0.11200243578 0.622241865621
0.43523225162 0.217881149862 0.873556347172
0.507938754332 -0.0459466553951 0.860166917933
0.706570228886 -0.0107428167896 0.707561377931
0.488418077463 0.0456064683527 0.871417139866
0.406374467948 0.0371101472859 0.912952697991
1 0 0
0 1 0
0.994399291925 -0.105563536685 0.00513691937846
0.965721355562 -0.121859590078 -0.229199702698
0.989389563809 -0.137767130537 -0.0461357645366
0 1 0
0 0 1
1 0 0
0 1 0
1 0 0
0.977024745527 -0.151765871453 -0.149632105141
0.939047675479 0.00913686690367 -0.343665507204
0.899907588565 -0.18914072499 -0.392927624625
0.982336851759 -0.0797467494578 -0.169277185784
0.966664622303 -0.0521796148013 -0.250672686559
0.970284591916 -0.241257780632 -0.0185065927611
0 1 0
0 0 1
0 1 0
0 1 0
0 0 1
0.977976618905 0.0720799339184 -0.195872958834
0.935908558961 0.145008476093 -0.321010453294
0.994769500523 0.0739582365277 -0.0704543829586
0.878211569336 -0.0159261588454 -0.478007109727
0.988877145357 -0.091400875082 -0.117336573262
0.954463041316 -0.151225860598 -0.257159564954
1 0 0
1 0 0
0 0 1
0.857475802004 0.11264857568 -0.502041380142
0.901758089302 -0.0223914209881 -0.431660714733
0.882005089536 -0.140399326001 -0.449838917049
0.851845211015 -0.0515834126491 -0.521247434536
0.987678351331 -0.0608777528158 -0.144171333922
0.791461661793 -0.245689251136 -0.559665283708
0.961721337773 -0.0928241430395 -0.257828910213
0 0 1
0.908311923751 -0.0749576691434 -0.411522535239
0.812792429103 -0.113228903691 -0.57144350776
0 -0.684697639051 0.728827238156
-0.338241431177 0.133104929659 0.931598525082
0.860673055368 -0.338461335928 -0.38037588757
0.847168450572 -0.093253880579 -0.523076791792
0.881066635729 -0.0426930279306 -0.47106144904
0.825076360579 -0.10486284972 -0.555205171051
0.902578360998 -0.122826739231 -0.412632880887
0.948702986649 -0.0849231133151 -0.304550008944
1 0 0
1 0 0
0.771314354998 0.200869480519 -0.603925175474
-0.354951004119 -0.017369266526 0.934723538409
0.675255799937 -0.215425476037 -0.705422900766
0.765293715328 -0.0994486113759 -0.635952437667
0.699253434833 -0.0376393893698 -0.713882280381
0.695887910608 -0.00574029595482 -0.718127471186
0.734815192532 -0.114276502599 -0.668571248094
1 0 0
0 1 0
0.810671288384 -0.0701348839602 -0.581285781902
0.755393461662 -0.0525548041321 -0.653160555025
0.819710367786 -0.128651979444 -0.558142975527
0.835392650484 -0.0587679233928 -0.546502928352
0.723375301897 -0.104283935749 -0.682534272656
0.883254628626 -0.0625910421811 -0.464697344999
0 1 0
0.774965991721 -0.0656611408589 -0.628582791887
0.672428556206 0.427404957718 -0.604288704939
0.696896742096 0.118448819243 -0.707322280206
0.827362149928 -0.0939873088113 -0.553749274175
0.901804426474 -0.0911009267769 -0.422432713615
0.790568270658 0.0245037331762 -0.611883466429
-0.610459210562 0.0197822829163 0.791800614753
-0.58315766086 -0.0164297300929 0.812192838277
0.786679154249 -0.0382866569242 -0.616173709413
0.615370020297 -0.381394254772 -0.689824731759
0.963085242978 -0.163267942028 0.214033627883
0.688990695899 0.129890135332 -0.713036025533
-0.476752102506 -0.0748842281467 0.875842328922
-0.563427935806 -0.0651382528125 0.823593327543
0.421710827261 -0.0712018516325 0.903930458882
0.937078100658 0.104224889874 0.333199348135
-0.582288109948 -0.0021431013254 0.812979682483
-0.450510749354 -0.0223660537883 0.89249079791
0.503711477909 0.0251605367033 0.863505468665
-0.0560094737709 -0.0223931171771 0.998179085711
-0.107698631481 0.00765203965356 0.994154138485
-0.605577396983 -0.0865696685969 0.791063656568
0.899637469893 0.241645533414 -0.363675485764
0.777455993255 -0.613617970912 0.137967982972
0.363068458813 0.026191905577 0.931394265764
0.939673916989 0.309502470362 -0.145674811033
-0.144644470865 -0.0624197512315 0.987512912171
-0.371872909596 0.0676462393249 0.925815600113
0.334945332254 0.154533195963 0.929478948523
0.247710692182 -0.059512281044 0.967004499154
0.0457692717403 0.157238538174 0.986499475863
0.0246523647667 0.143560166171 0.989334493283
-0.0346536655207 -0.132097717371 0.990630767002
-0.0919766037217 -0.0118655469426 0.99569047056
-0.334664536333 -0.0260252085907 0.94197788543
0.216650834278 0.0258170687719 0.975907728716
0.128762266772 -0.0153565066605 0.99155658253
-0.0720450620141 0.0127379191519 0.997320036124
0.624539319862 0.549941005926 0.554540826222
0.767972507522 0.45645328216 0.44929792888
0.798507221291 0.34961141609 -0.490059256913
0.613990711173 0.758144092134 -0.21961999489
0.934456143203 0.312011874546 0.171581778087
0.966209879487 0.220743988177 0.133081029702
0.494014951925 0.179266357148 0.850771885096
0.699539320017 0.525894631102 -0.483817710226
0.73450958438 0.671600349758 0.0972041185284
0.558517733483 0.515941279351 -0.649509459243
0.350344141277 0.619257286106 0.702694383269
0.740248148861 0.0840591831259 -0.6670582672
0.605884921654 -0.067050656105 0.792721685857
-0.372613717131 0.920432478599 -0.118165435493
0.92945672657 0.0726069659772 0.361715940935
0.674698428646 -0.188940098155 0.713500994878
0.688348735454 0.713854916162 -0.128791215033
0.044842956557 -0.404197747008 0.913571721629
-0.0783010134724 -0.0231817864821 0.996660200903
0.269124565808 -0.121967133746 0.955351237171
-0.0220011606095 0.855279786624 0.517699174738
-0.0919482325705 0.947424618081 0.30648346706
-0.432049004583 0.898421389869 0.0785663023547
0.584097833194 -0.31776302678 0.746897837773
-0.55320562068 0.810796159664 0.19124102259
-0.327534810038 0.924848820557 0.193327720021
0.774725163597 -0.630833270847 -0.0430151750241
0.189775206421 -0.411341457066 0.8915063526
-0.0106133262196 0.999314362657 -0.0354705778755
0.989796362553 -0.141966583119 -0.0121922087748
0.997353535158 -0.0445818172722 -0.0574315895427
0.995684735448 -0.0907941852926 -0.0191917563953
1 0 0
0 0 1
1 0 0
0.92591629048 -0.110373897233 -0.361243167178
0.990561491661 0.0979756967277 0.0958576762109
0.981388355232 -0.057931197913 -0.183087062688
1 0 0
0 0 1
1 0 0
0.977543342366 -0.0929349183854 -0.18913517584
0.989348524337 0.0668829228583 0.129291036124
0.995417615544 0.00145989279406 -0.0956119206893
1 0 0
1 0 0
0.927868864133 -0.33953924741 -0.154183236577
0.959781833383 -0.279787352939 -0.0231920124812
0.912879323971 0.0658887530389 -0.402877167495
1 0 0
1 0 0
1 0 0
1 0 0
1 0 0
0.886160211607 -0.111204303731 -0.449837395284
0.897420469103 -0.16659554128 -0.408512456677
0.917463763701 0.0313125704834 -0.39658512986
-0.734505408342 -0.00742992816509 0.678562157273
1 0 0
0.778947612393 -0.0106480322901 -0.626998593742
-0.625925011176 -0.0262891142532 0.779440031597
0.0452425478427 0.34588976466 0.937183750696
0.575337570267 -0.211484340748 0.790101926246
-0.276738654653 0.189004590697 0.942174602564
0.0486179006941 -0.275917106183 0.95995106659
0.365949487095 -0.310126457932 0.877440911392
0.0393499412934 0.00161616218034 0.999224184125
-0.255015576378 0.31902429131 0.912792724204
-0.100353037733 -0.0792540929389 0.991790328936
-0.0172883629609 -0.45341996645 0.891129309657
0.619612330913 -0.0465940085494 -0.783523808028
-0.440861145062 -0.0307177285631 0.897049537053
-0.619774048897 -0.0712882828566 0.781535737533
0.311067030252 0.142192932222 0.939690626066
0.323255663974 0.0390205679784 0.945506832859
0.242061687883 0.0541763127797 0.968747163295
0.0817875344765 -0.12087303685 0.989292933446
-0.158963366102 -0.0751392447195 0.984421018742
-0.0350998236631 -0.0107907331038 0.99932555379
