# vtk DataFile Version 2.0
VTK exported mesh
ASCII
DATASET UNSTRUCTURED_GRID
POINTS 507 double
0.157351076603 -0.0436767078936 -0.12912504375 
-0.64572763443 -0.0422893241048 0.253706246614 
-0.649265348911 -0.041737370193 -0.632155299187 
0.0344112180173 -0.0434040427208 -0.629056811333 
0.636263668537 -0.0421565957367 0.640655219555 
-0.642485022545 -0.0348651707172 0.65854036808 
-0.674681782722 0.2315171808 -0.0756069272757 
-0.650629222393 0.24841722846 -0.655623435974 
-0.318289637566 0.247116476297 -0.580037415028 
-0.648360431194 0.325311660767 -0.074681378901 
-0.569091141224 0.36873626709 -0.283932060003 
-0.60553252697 0.370546102524 0.196805402637 
-0.5333507061 0.0339956879616 -0.676356613636 
-0.459726274014 0.324920505285 -0.465803951025 
-0.467093586922 0.426601648331 -0.0888237059116 
0.0645136460662 0.1724062711 -0.67661523819 
-0.417871713638 0.418469130993 0.225602656603 
-0.545201718807 0.546954274178 -0.0618188679218 
-0.472913712263 0.665693461895 0.083154939115 
-0.444399386644 0.680824398994 -0.171412959695 
-0.476333081722 0.760550558567 -0.000589228759054 
-0.417343527079 2.23569560051 -0.0588013753295 
-0.420055598021 0.754788339138 -0.0545619428158 
0.0688401013613 0.0316962152719 -0.67627364397 
-0.215691074729 0.372183680534 -0.597596228123 
-0.276328921318 0.445583611727 -0.361906349659 
-0.354613572359 0.535450518131 -0.430932343006 
-0.428499013186 0.796815633774 -0.195608749986 
-0.343928396702 0.767833888531 -0.207095816731 
-0.33525505662 0.748487591743 -0.237810194492 
-0.39784553647 0.763453483582 -0.0849096029997 
-0.403500765562 0.789070129395 -0.0974912419915 
-0.409169435501 1.86041915417 -0.0621603578329 
-0.374551266432 1.88036203384 -0.210350245237 
-0.328064829111 0.630389213562 -0.347955316305 
-0.344948023558 0.769238710403 -0.322323590517 
-0.20908908546 0.716230511665 -0.429426640272 
-0.258709102869 1.82436096668 -0.333063900471 
-0.337296098471 1.4244133234 -0.245854020119 
-0.190197318792 0.743684411049 -0.297926485538 
-0.338332414627 2.23312139511 -0.328269928694 
-0.336385190487 2.01108455658 -0.232352524996 
-0.332108557224 1.86201822758 -0.232772916555 
-0.104154624045 0.663311302662 -0.464184463024 
-0.245019346476 1.46546363831 -0.32784485817 
-0.216610863805 0.765009701252 -0.349289447069 
-0.13624317944 0.782726168633 -0.435277819633 
-0.0830908492208 0.749456763268 -0.393549829721 
-0.217873468995 1.62854969501 -0.364683300257 
-0.18973493576 1.79246616364 -0.43491512537 
0.0250637196004 0.432679355145 -0.461465418339 
0.0127124488354 0.542677164078 -0.541751742363 
-0.0679763555527 0.758589506149 -0.401239365339 
-0.112757079303 2.02876758575 -0.408675849438 
0.178102120757 0.253156393766 -0.610300302505 
0.0769456252456 0.31839337945 -0.648166596889 
-0.0266537666321 0.753537297249 -0.474576532841 
-0.0815098062158 1.26418018341 -0.39560598135 
-0.0624861977994 1.6259996891 -0.417351365089 
-0.454224079847 2.05782175064 -0.0451837703586 
-0.458809316158 2.51451706886 0.0412355512381 
-0.440135926008 2.01748085022 -0.175766199827 
-0.404585599899 2.33382821083 -0.0989938676357 
-0.39907297492 2.6535422802 -0.0916414633393 
-0.337973862886 2.9664170742 -0.248385712504 
-0.214051499963 2.57511544228 -0.357243806124 
-0.0873542428017 2.82915210724 -0.395347595215 
0.00986034423113 2.04115056992 -0.471511185169 
-0.0611331760883 2.72276830673 -0.412032753229 
-0.478601962328 3.70588850975 -0.00643341150135 
-0.362536668777 3.71986985207 -0.208129480481 
-0.443688720465 3.73950457573 -0.169606402516 
-0.410410404205 3.70674705505 -0.0593141168356 
-0.402932524681 3.732619524 -0.0984908118844 
-0.260578662157 3.73438596725 -0.332311719656 
-0.33197543025 3.11635065079 -0.245309576392 
-0.34984600544 3.68414640427 -0.318801671267 
-0.242175966501 3.03823637962 -0.329457074404 
-0.21706700325 2.93485474586 -0.370177358389 
-0.16338711977 3.70976424217 -0.443623036146 
-0.209615826607 3.72602081299 -0.368390977383 
-0.111692972481 3.69588732719 -0.399813145399 
-0.0643225684762 3.08068752289 -0.413976281881 
-0.0260714776814 3.71161270142 -0.473214566708 
-0.077001683414 3.74688315392 -0.392500311136 
-0.448634922504 3.8145942688 -0.163712069392 
-0.474003970623 3.76982188225 0.013037469238 
-0.533246457577 3.8936047554 0.121788278222 
-0.497398853302 3.8973531723 -0.22860071063 
-0.466478288174 4.01094436646 0.0225845593959 
-0.412893980742 4.01947498322 -0.224143773317 
-0.587408781052 4.0926361084 -0.14399176836 
-0.427776366472 4.18781471252 -0.385834395885 
-0.372383445501 4.03720092773 -0.389669388533 
-0.528150498867 4.22062158585 0.0334501899779 
-0.513298213482 4.31920528412 -0.141194373369 
-0.531399607658 4.29558849335 0.0584150329232 
-0.560001969337 4.49976825714 -0.0939010605216 
-0.427242875099 4.35944604874 -0.423828452826 
-0.336818695068 3.7387406826 -0.22598849237 
-0.303822904825 3.79319429398 -0.367357462645 
-0.257208347321 4.1222243309 -0.541951358318 
-0.255961596966 3.91165184975 -0.463394522667 
-0.210240840912 4.38425683975 -0.530654013157 
-0.137256503105 4.24983930588 -0.51741027832 
-0.09741358459 4.01548671722 -0.456177383661 
-0.086660258472 3.78654170036 -0.467866688967 
-0.0553946457803 3.89653515816 -0.537778437138 
0.138623923063 4.12141609192 -0.586468338966 
0.0143868159503 4.40802574158 -0.533191740513 
0.148975595832 3.80059790611 -0.451196968555 
-0.71136534214 5.29510593414 -0.425147682428 
-0.801304996014 5.22005033493 -0.6005448699 
-0.672302663326 5.14906167984 -0.0923963338137 
-0.730631351471 4.93104505539 -0.505166292191 
-0.68012970686 4.71374225616 -0.50383579731 
-0.564633905888 4.73815584183 -0.329331219196 
-0.541888237 4.88769769669 -0.728809535503 
-0.580614924431 5.04972648621 -0.703550577164 
-0.698008596897 4.99479293823 -0.54710316658 
-0.608126521111 5.11253595352 -0.180650681257 
-0.595190882683 5.27265405655 -0.797710478306 
-0.662553966045 5.29584121704 -0.274212062359 
-0.635776877403 5.29577350616 0.176628813148 
-0.635423243046 4.99827432632 -0.339260995388 
-0.604732513428 5.02565288544 -0.0862679630518 
-0.542693257332 4.93041658401 -0.18466168642 
-0.586563527584 4.84364938736 0.0235992595553 
-0.60897397995 5.06830358505 0.12694452703 
-0.569018602371 4.51870441437 0.113595448434 
-0.577771306038 4.64098453522 -0.147392809391 
-0.494309782982 4.63527107239 -0.222662031651 
-0.330440759659 4.75461149216 -0.585252404213 
-0.488117277622 4.68183994293 -0.536835074425 
-0.357042402029 5.0113492012 -0.637768983841 
-0.306446403265 5.29546785355 -0.667811691761 
-0.452324718237 4.61712646484 -0.34462749958 
-0.464477062225 4.72633171082 -0.354693263769 
-0.423419624567 4.79406929016 -0.334385246038 
-0.393494188786 4.75595569611 -0.330633640289 
-0.448900848627 4.72368764877 -0.37384685874 
-0.226391166449 5.10133266449 -0.610759496689 
-0.348045170307 4.57158994675 -0.447826653719 
-0.173687532544 4.62880277634 -0.565252363682 
-0.284782201052 5.15760183334 -0.69326120615 
0.153189301491 5.29603052139 -0.282727628946 
-0.115353345871 5.02299880981 -0.599903643131 
-0.279200702906 5.02797651291 -0.538435876369 
-0.0826932415366 4.53706121445 -0.535352349281 
0.043625049293 5.29507827759 -0.641708731651 
-0.0877322182059 4.73850059509 -0.542551040649 
-0.00688731297851 5.12653017044 -0.673712253571 
0.00103352288716 4.94081830978 -0.594962120056 
0.120512217283 4.56410884857 -0.533798694611 
-0.664066672325 0.242688506842 0.651080489159 
-0.541965305805 0.251088470221 0.33958029747 
-0.0322514884174 0.174387350678 0.677032828331 
-0.484918832779 0.357130944729 0.423177331686 
-0.291282176971 0.25017657876 0.57299798727 
-0.450130581856 0.558212935925 0.330927997828 
-0.0116227772087 0.245661258698 0.64077013731 
-0.202010631561 0.35664755106 0.615211009979 
-0.205075293779 0.441180557013 0.408016443253 
-0.354692578316 0.700005233288 0.324382007122 
-0.396102935076 0.744429945946 0.0953542143106 
-0.447476536036 0.8132340312 0.151479646564 
-0.361479818821 0.775721609592 0.207990586758 
-0.406820714474 0.772586643696 0.0629036873579 
-0.399075269699 1.59294712543 0.0842767879367 
-0.431598812342 2.27094554901 0.18787497282 
-0.239005327225 0.737289965153 0.32850959897 
-0.349838644266 0.800379812717 0.321746200323 
-0.334640949965 0.755281627178 0.231096297503 
-0.333245068789 1.39328050613 0.230151847005 
-0.258726865053 0.78903311491 0.332458138466 
-0.339769363403 1.4675886631 0.255765706301 
-0.343888014555 2.68749475479 0.323890775442 
-0.335934787989 2.08578681946 0.22774964571 
-0.116048201919 0.658066153526 0.465916216373 
0.0712593868375 0.425563901663 0.481587320566 
-0.044232968241 0.532559156418 0.537463665009 
-0.166940659285 0.745434701443 0.443863630295 
-0.21168936789 0.772010684013 0.35816809535 
-0.220047846437 2.29689478874 0.397104978561 
-0.138337016106 2.25532436371 0.439084619284 
-0.0804499313235 0.757836580276 0.391797721386 
-0.111857995391 1.973264575 0.407308250666 
0.195496380329 0.355007201433 0.617296457291 
-0.0449973270297 0.761159420013 0.458678424358 
0.0436659418046 0.777526199818 0.459548950195 
-0.059122916311 1.64454102516 0.41845947504 
-0.415289491415 2.70637822151 0.0590908676386 
-0.410074710846 2.10273790359 0.106136597693 
-0.365356296301 2.53996658325 0.209989279509 
-0.398036211729 1.7381850481 0.0795677825809 
-0.258513152599 2.61277842522 0.332527667284 
-0.336789935827 2.68672156334 0.226182475686 
-0.336664110422 2.76618432999 0.246442973614 
-0.243685886264 2.20000529289 0.327017247677 
-0.214548125863 2.1932091713 0.364669144154 
-0.205358594656 3.67704534531 0.429450035095 
-0.08590131253 2.20048046112 0.393548101187 
-0.0739423930645 2.17428016663 0.396845191717 
-0.0574892126024 2.63386535645 0.411975234747 
-0.398835659027 2.73371219635 0.0908453688025 
-0.44259890914 3.74193716049 0.13765245676 
-0.397941023111 3.73885178566 0.0551924295723 
-0.405331522226 3.74831819534 0.210308507085 
-0.332502573729 3.71370029449 0.224655836821 
-0.332684278488 3.72994017601 0.239537775517 
-0.228151455522 3.17121076584 0.332616657019 
-0.25927272439 3.72488975525 0.332501500845 
-0.233680397272 3.07239961624 0.326676905155 
-0.21590512991 3.6976556778 0.369621008635 
-0.125211119652 3.71328377724 0.421244293451 
-0.0921534523368 3.71853971481 0.392587393522 
-0.0657975450158 2.94545149803 0.403081148863 
-0.047904651612 3.7615852356 0.464549422264 
0.0343522280455 3.70205211639 0.467585116625 
-0.577692091465 4.07957410812 0.120209887624 
-0.433160662651 4.17564964294 0.393745571375 
-0.378188878298 4.04692173004 0.430133730173 
-0.364390075207 3.91753196716 0.401695460081 
-0.3487662673 4.02498674393 0.32443344593 
-0.427225887775 4.3016409874 0.40614297986 
-0.396081477404 3.78561353683 0.256783932447 
-0.212413817644 4.1541519165 0.556225895882 
-0.335579097271 3.71100330353 0.332884401083 
-0.241204023361 3.72883081436 0.407650649548 
-0.188003376126 3.8784506321 0.509035110474 
-0.196574479342 4.31858682632 0.500074148178 
-0.235152870417 3.74314165115 0.327058285475 
0.0102038783953 4.30861997604 0.530262708664 
-0.000994779518805 4.01465654373 0.470242202282 
-0.109067864716 4.54475545883 0.539831280708 
0.156684488058 4.07224321365 0.576220095158 
0.06455758214 4.23761320114 0.520809948444 
-0.0560741610825 3.72248792648 0.419511377811 
0.142203062773 3.78683710098 0.452946007252 
0.145682215691 3.89780950546 0.525015175343 
-0.653282701969 5.12524652481 0.377143830061 
-0.787944436073 5.27101993561 0.598428368568 
-0.684614241123 5.15229177475 0.243436813354 
-0.681990087032 5.02383232117 0.451325267553 
-0.684381902218 4.70764112473 0.465536743402 
-0.668393552303 4.85675430298 0.634506702423 
-0.704460680485 5.03373765945 0.576090812683 
-0.517218708992 5.02405166626 0.686517059803 
-0.58218896389 5.09449625015 0.69889998436 
-0.596494495869 5.15544652939 0.785432696342 
-0.31295889616 5.29581165314 0.658942401409 
-0.604902565479 5.29037570953 0.771996438503 
-0.584118425846 4.78366470337 0.300649255514 
-0.521146595478 4.68815851212 0.431421428919 
-0.625779747963 4.97063350677 0.304867267609 
-0.562288343906 4.71624517441 0.128159016371 
-0.536041855812 5.01839160919 0.283111035824 
-0.476103156805 4.67198133469 0.279101997614 
-0.521470487118 4.75461959839 0.710961341858 
-0.54394119978 4.95872163773 0.218169569969 
-0.461083620787 4.94493103027 0.69522857666 
-0.460150897503 4.95403671265 0.231892958283 
-0.53674018383 4.98106145859 0.215133786201 
-0.535909056664 4.96332788467 0.194003522396 
-0.364143520594 4.57101297379 0.43829831481 
-0.375162571669 4.69460058212 0.599881291389 
-0.11873421073 5.14694738388 0.666812419891 
-0.296791017056 5.10695838928 0.625937402248 
-0.34095698595 4.77776288986 0.527805447578 
-0.204039677978 4.8741979599 0.570780396461 
-0.215419411659 4.65825843811 0.565983712673 
-0.282679140568 5.02022886276 0.536473691463 
-0.095505669713 5.01101160049 0.59575098753 
-0.0792879462242 4.72370100021 0.54953122139 
0.324393004179 5.29601716995 0.171565487981 
0.112110450864 4.68869161606 0.541027903557 
0.0715587511659 4.94316101074 0.583007633686 
0.104400336742 5.28078937531 0.677033305168 
0.644684493542 -0.0405762530863 -0.628402173519 
0.644888222218 0.25062301755 -0.64966994524 
0.272703379393 0.370717525482 -0.569464087486 
0.0816530063748 0.681631684303 -0.466380000114 
0.0529037080705 0.774833202362 -0.411927163601 
0.0918213501573 0.745033740997 -0.391875714064 
0.0850191637874 1.56802868843 -0.395349860191 
0.325546890497 0.55105805397 -0.439813166857 
0.23736448586 0.669363975525 -0.409540951252 
0.211428239942 0.787677407265 -0.412520736456 
0.211575269699 0.768569648266 -0.343945592642 
0.219354838133 0.779140353203 -0.337738513947 
0.246787756681 0.758983254433 -0.330710977316 
0.128563642502 1.62908256054 -0.433066993952 
0.212727129459 1.71858990192 -0.348432928324 
0.412311375141 0.43272382021 -0.245941862464 
0.335581034422 0.727064609528 -0.332761764526 
0.417279601097 0.66279053688 -0.227689921856 
0.227541074157 1.59478855133 -0.332493931055 
0.496460825205 0.251107186079 -0.40501537919 
0.332511663437 1.47833776474 -0.251806646585 
0.319774985313 0.746094942093 -0.235919937491 
0.332511842251 1.55774831772 -0.225012376904 
0.355399549007 1.8830075264 -0.212384417653 
0.331462413073 1.31247627735 -0.228266596794 
0.350243210793 2.72536849976 -0.308810532093 
0.557226657867 0.34420889616 -0.342784076929 
0.535720229149 0.541870474815 -0.101527236402 
0.409817904234 0.769416332245 -0.209705740213 
0.400051146746 0.773644447327 -0.106139533222 
0.3880648911 0.741721212864 -0.0776893272996 
0.43563786149 1.99545121193 -0.144280523062 
0.393224895 1.63660907745 -0.089340351522 
0.409452527761 2.23414230347 -0.059952583164 
0.470238775015 0.732266545296 -0.0189150553197 
0.665954709053 0.063038110733 -0.658904850483 
0.455048263073 0.633376479149 0.133605867624 
0.63015037775 0.366577982903 -0.0281145982444 
0.641638636589 0.238896027207 0.107161983848 
0.0745404809713 2.12622976303 -0.396604508162 
0.053623598069 2.4332447052 -0.421106189489 
0.109227374196 2.34994840622 -0.409803807735 
0.0870008319616 2.72343277931 -0.395306825638 
0.211485356092 2.07780432701 -0.354623824358 
0.219636753201 1.78879952431 -0.337623000145 
0.245157212019 1.42595398426 -0.332110911608 
0.253402531147 2.9032535553 -0.334056675434 
0.284618616104 2.22496128082 -0.353332132101 
0.331855297089 2.80522966385 -0.248914539814 
0.331510484219 2.54641151428 -0.227994680405 
0.342493355274 2.5537686348 -0.215839475393 
0.334537804127 2.61813306808 -0.222835108638 
0.399400413036 2.34393143654 -0.098524749279 
0.461390435696 2.36566662788 -0.0305005796254 
0.0522553399205 3.7232644558 -0.414511501789 
0.0890931338072 3.74283576012 -0.393133729696 
0.180080249906 3.65674161911 -0.434522539377 
0.225764542818 3.09481978416 -0.332393318415 
0.209060803056 3.72276234627 -0.35255458951 
0.230959266424 3.04605674744 -0.331837624311 
0.347095876932 3.70220637321 -0.211198881269 
0.33134073019 3.7423119545 -0.195851713419 
0.396906614304 3.72565627098 -0.216017827392 
0.392623394728 3.06434249878 -0.0938999801874 
0.43461638689 3.75127577782 -0.130728915334 
0.399472385645 3.71795749664 -0.0633103623986 
0.23393124342 4.02423715591 -0.408873200417 
0.29631716013 3.90186357498 -0.45626950264 
0.292337536812 4.21366643906 -0.484486192465 
0.403651505709 4.2761092186 -0.428294718266 
0.226517900825 3.73764610291 -0.328117460012 
0.290899723768 3.80692720413 -0.376367539167 
0.426664233208 3.77722764015 -0.198645591736 
0.461478620768 4.06090736389 -0.33280017972 
0.392255723476 3.72646212578 -0.0934214293957 
0.467672258615 3.71955633163 -0.0236990377307 
0.461155474186 3.7604329586 0.0205876398832 
0.508207440376 3.8926024437 -0.184682801366 
0.423785030842 4.02840900421 -0.172071576118 
0.552459359169 4.17080402374 -0.187973678112 
0.509656429291 4.29061317444 -0.168098047376 
0.46053904295 4.00988817215 0.00962376967072 
0.531326055527 3.89710664749 0.121721543372 
0.604495942593 4.09019804001 0.0612962506711 
0.416082620621 4.0016951561 0.184289693832 
0.443031311035 4.51735019684 -0.375574588776 
0.53819078207 4.50573825836 -0.080764696002 
0.522311806679 4.26775169373 0.00543517712504 
0.0636840984225 4.70781803131 -0.538763821125 
0.0470032654703 4.84616661072 -0.575693070889 
0.00722562381998 4.87825775146 -0.54750430584 
0.0430226549506 4.86661243439 -0.575701117516 
0.0731363743544 4.8411450386 -0.508267402649 
0.113323628902 4.84754037857 -0.53555303812 
0.191851228476 4.51019525528 -0.53935611248 
0.227203667164 4.85734462738 -0.5827216506 
0.242699921131 5.10512971878 -0.612737059593 
0.362137287855 5.02402305603 -0.632366299629 
0.332777112722 4.7617483139 -0.554593384266 
0.271908402443 5.01949310303 -0.543693065643 
0.270096749067 5.16196918488 -0.692120194435 
0.428290933371 4.7283873558 -0.435194581747 
0.507661283016 5.29532718658 -0.725008606911 
0.394903510809 4.69231557846 -0.621367752552 
0.469003885984 5.01171159744 -0.693473398685 
0.589769899845 5.15469646454 -0.783243596554 
0.487554192543 4.65631246567 -0.247650444508 
0.586912214756 4.77456903458 -0.293903797865 
0.531212806702 4.82804393768 -0.116600081325 
0.530917644501 4.62559843063 0.0552028603852 
0.520460784435 4.76014900208 -0.717027544975 
0.640444099903 4.67233514786 -0.42792725563 
0.574871659279 4.87024021149 0.0218388922513 
0.600841999054 5.05577898026 -0.125460684299 
0.618851780891 5.00363397598 -0.322990387678 
0.618491053581 5.04228210449 -0.681835055351 
0.631877720356 4.85318899155 -0.664248228073 
0.704640805721 4.98843479156 -0.475233972073 
0.669057011604 5.15054130554 -0.0803846418858 
0.65247130394 5.103556633 -0.388768523932 
0.799793481827 5.25863313675 -0.600176751614 
0.646534621716 5.29545783997 -0.18759842217 
0.741751968861 4.83780384064 -0.549728214741 
0.196374431252 0.67496073246 0.44098931551 
0.0604806989431 0.735081672668 0.396554738283 
0.0588732808828 0.784138083458 0.404534906149 
0.0575563199818 1.56470179558 0.409905046225 
0.412220656872 0.54514080286 0.376816928387 
0.106160633266 1.51257538795 0.407374233007 
0.0824340507388 1.41162645817 0.393513828516 
0.154611751437 0.786584854126 0.443479120731 
0.384821861982 0.250756651163 0.503701210022 
0.20885194838 0.769895672798 0.382473140955 
0.231034979224 0.741861641407 0.33032566309 
0.217343822122 0.774997472763 0.334289729595 
0.21100141108 2.4438393116 0.385380446911 
0.549848258495 0.362836867571 0.335929960012 
0.406355470419 0.431058883667 0.225297674537 
0.247502818704 0.768462300301 0.332236051559 
0.219433903694 1.50661921501 0.33563259244 
0.665273547173 0.236688315868 0.647363007069 
0.332109510899 0.783128142357 0.333290368319 
0.364633560181 0.70558744669 0.299660056829 
0.332551568747 0.803557634354 0.25862506032 
0.329521715641 0.742273628712 0.229124769568 
0.350234270096 0.775182366371 0.209130004048 
0.334313452244 1.73028469086 0.22146204114 
0.332385152578 2.01205825806 0.255603581667 
0.395635932684 0.753074944019 0.0678012892604 
0.392912179232 0.747345149517 0.0868854671717 
0.433463305235 0.76054662466 0.185395121574 
0.396819442511 0.792213737965 0.103069260716 
0.416308134794 1.3990175724 0.0562375299633 
0.433976590633 2.38080954552 0.0500832982361 
0.0685032382607 2.28438091278 0.397184848785 
0.0603537224233 2.72672152519 0.403709888458 
0.0812290608883 2.62889027596 0.393307685852 
0.214083462954 2.5421435833 0.34167432785 
0.132190570235 2.64577031136 0.437605768442 
0.221243664622 2.77673006058 0.334218323231 
0.227099537849 2.62242770195 0.331405937672 
0.249373108149 2.69609951973 0.332908958197 
0.339937180281 2.21326422691 0.216133654118 
0.329847961664 2.2467417717 0.231122925878 
0.305887877941 2.55228757858 0.347223997116 
0.398289769888 1.77482545376 0.0667166113853 
0.352726399899 2.1264462471 0.212639346719 
0.399084180593 1.94840788841 0.065898925066 
0.440446913242 3.68340063095 0.143688976765 
0.396273583174 2.40986990929 0.216488137841 
0.392589151859 2.50177931786 0.0799347832799 
0.407924383879 2.69835233688 0.109911866486 
0.05860523507 2.90732741356 0.406640261412 
0.0699206069112 3.74035763741 0.396313965321 
0.10161164403 3.69835400581 0.399174153805 
0.190828174353 3.67576432228 0.430099248886 
0.209045857191 3.70896363258 0.339602231979 
0.336177438498 3.73793196678 0.218787893653 
0.330955654383 3.27592349052 0.225280016661 
0.330603986979 3.72641348839 0.248646751046 
0.354551255703 3.72524547577 0.296712726355 
0.356790930033 3.71090006828 0.209444105625 
0.397985965014 2.97879552841 0.0675398111343 
0.398047715425 3.06117272377 0.0667155906558 
0.398021668196 3.72420406342 0.0601537749171 
0.390399843454 3.70698642731 0.0870517864823 
0.0598708279431 3.71155810356 0.402112483978 
0.265849739313 4.3248758316 0.48499378562 
0.390489548445 4.20745849609 0.409371644258 
0.0974042713642 4.53141117096 0.538057804108 
0.228280603886 3.74423265457 0.331181794405 
0.39921027422 3.89697504044 0.369277566671 
0.267985254526 4.0074877739 0.378159165382 
0.272514432669 3.72144341469 0.337529718876 
0.390413880348 3.78094816208 0.264145940542 
0.446474730968 4.0702791214 0.377463310957 
0.347924888134 4.5012550354 0.453927874565 
0.499358952045 4.26621055603 0.17748722434 
0.501275002956 4.42357873917 0.265245467424 
0.543138861656 4.49482631683 0.031336825341 
0.267402082682 5.01950407028 0.542640805244 
0.362574368715 5.03219652176 0.63006156683 
0.394510269165 5.29552745819 0.688824653625 
0.32274723053 4.70089006424 0.459243267775 
0.31665173173 4.76765489578 0.569154620171 
0.320211261511 5.1576795578 0.699881732464 
0.335229456425 4.85063505173 0.541852235794 
0.334888726473 4.90996408463 0.502290189266 
0.349575817585 4.88801908493 0.581781744957 
0.305796414614 4.92441606522 0.541715621948 
0.432039886713 4.5688791275 0.341982841492 
0.553735077381 4.67886352539 0.435611248016 
0.472554534674 4.70883655548 0.668173909187 
0.605622828007 5.12381458282 0.722346842289 
0.503228902817 4.67134809494 0.239889144897 
0.560115158558 4.79249858856 0.310979634523 
0.516885459423 4.97484207153 0.716171503067 
0.587502539158 4.67996168137 0.17523188889 
0.548855602741 5.01497793198 0.245176538825 
0.649911522865 4.86780643463 0.643416583538 
0.64105039835 5.01944875717 0.351694703102 
0.601818203926 5.06665945053 0.137406423688 
0.726324379444 4.78120183945 0.510330379009 
0.684053897858 5.01501274109 0.524053633213 
0.710169553757 5.10226821899 0.575723528862 
0.697791516781 5.15709924698 0.296342641115 
0.612064003944 5.27000522614 0.788288891315 
0.785339593887 5.28708410263 0.598923385143 
0.661275446415 5.29508161545 0.241535738111 
CELLS 1000 4000
3 0 1 2 
3 0 2 3 
3 4 5 1 
3 6 7 2 
3 6 2 1 
3 6 8 7 
3 9 10 6 
3 11 10 9 
3 7 12 2 
3 6 10 8 
3 10 13 8 
3 14 10 11 
3 7 15 12 
3 16 17 14 
3 18 19 17 
3 20 19 18 
3 20 21 22 
3 12 23 2 
3 15 23 12 
3 24 13 10 
3 10 14 25 
3 14 17 26 
3 26 25 14 
3 19 26 17 
3 27 28 19 
3 19 28 29 
3 20 22 19 
3 22 30 19 
3 31 27 19 
3 30 31 19 
3 32 30 22 
3 21 32 22 
3 27 33 28 
3 13 24 8 
3 10 25 24 
3 19 34 26 
3 35 36 34 
3 19 35 34 
3 29 35 19 
3 35 37 36 
3 38 35 29 
3 36 37 39 
3 40 37 35 
3 41 38 29 
3 33 42 28 
3 28 41 29 
3 34 43 26 
3 34 36 43 
3 37 44 39 
3 45 36 39 
3 46 47 36 
3 45 48 36 
3 49 46 36 
3 44 45 39 
3 23 3 2 
3 25 50 24 
3 26 50 25 
3 26 51 50 
3 26 43 51 
3 47 52 43 
3 36 47 43 
3 46 53 47 
3 8 54 7 
3 8 55 54 
3 24 55 8 
3 52 56 43 
3 47 57 52 
3 52 58 56 
3 57 58 52 
3 59 21 20 
3 60 59 20 
3 61 33 27 
3 31 61 27 
3 62 61 31 
3 30 62 31 
3 32 63 30 
3 63 62 30 
3 42 41 28 
3 38 40 35 
3 64 40 38 
3 41 64 38 
3 48 49 36 
3 65 48 45 
3 44 65 45 
3 49 53 46 
3 53 66 47 
3 58 67 56 
3 47 66 57 
3 57 68 58 
3 69 21 59 
3 60 69 59 
3 70 33 61 
3 62 71 61 
3 21 72 32 
3 72 63 32 
3 71 70 61 
3 63 73 62 
3 33 70 42 
3 40 74 37 
3 70 75 42 
3 75 64 41 
3 75 41 42 
3 76 74 40 
3 37 77 44 
3 74 77 37 
3 78 49 48 
3 65 78 48 
3 77 65 44 
3 78 79 49 
3 79 53 49 
3 80 79 78 
3 79 81 53 
3 66 68 57 
3 82 67 58 
3 68 82 58 
3 82 83 67 
3 84 68 66 
3 85 71 86 
3 86 87 88 
3 85 86 88 
3 89 90 88 
3 89 88 87 
3 90 89 91 
3 91 92 93 
3 91 94 92 
3 95 92 94 
3 96 95 94 
3 95 97 98 
3 73 71 62 
3 72 73 63 
3 69 72 21 
3 99 71 100 
3 70 71 99 
3 73 86 71 
3 86 72 69 
3 86 73 72 
3 71 85 100 
3 85 88 100 
3 92 101 93 
3 91 93 90 
3 95 98 92 
3 70 99 75 
3 99 64 75 
3 64 76 40 
3 99 76 64 
3 99 100 76 
3 74 76 100 
3 100 88 102 
3 88 90 102 
3 103 104 92 
3 98 103 92 
3 90 93 105 
3 102 90 105 
3 105 93 101 
3 92 104 101 
3 80 78 65 
3 77 80 65 
3 74 80 77 
3 100 79 80 
3 79 84 81 
3 106 84 79 
3 100 80 74 
3 102 107 100 
3 100 106 79 
3 81 84 66 
3 81 66 53 
3 106 100 107 
3 102 105 107 
3 101 108 105 
3 103 109 104 
3 84 82 68 
3 84 83 82 
3 84 106 83 
3 107 110 106 
3 104 108 101 
3 111 112 113 
3 114 115 116 
3 114 117 115 
3 118 119 112 
3 119 113 112 
3 113 119 120 
3 111 121 112 
3 122 111 113 
3 123 122 113 
3 124 114 116 
3 119 117 114 
3 124 119 114 
3 125 126 127 
3 118 117 119 
3 120 119 124 
3 120 124 125 
3 120 125 113 
3 128 113 125 
3 127 128 125 
3 112 121 118 
3 97 95 96 
3 129 130 97 
3 130 131 97 
3 132 133 117 
3 116 115 133 
3 115 117 133 
3 131 130 116 
3 127 126 130 
3 130 124 116 
3 126 124 130 
3 134 117 118 
3 125 124 126 
3 111 135 121 
3 122 135 111 
3 136 98 97 
3 131 136 97 
3 116 133 136 
3 136 131 137 
3 137 138 139 
3 140 137 139 
3 137 140 138 
3 116 136 137 
3 140 139 138 
3 131 116 137 
3 117 134 132 
3 118 121 141 
3 118 141 134 
3 136 142 98 
3 142 136 133 
3 132 143 133 
3 133 143 142 
3 121 135 144 
3 123 145 122 
3 132 134 143 
3 134 141 146 
3 146 147 134 
3 121 144 141 
3 98 142 103 
3 142 148 103 
3 135 149 144 
3 122 149 135 
3 122 145 149 
3 143 148 142 
3 134 150 143 
3 147 150 134 
3 147 146 150 
3 141 144 151 
3 149 151 144 
3 148 109 103 
3 143 150 148 
3 146 152 150 
3 141 151 146 
3 148 153 109 
3 148 150 153 
3 151 152 146 
3 5 154 1 
3 6 1 154 
3 154 155 6 
3 154 5 156 
3 11 9 6 
3 11 6 155 
3 157 11 155 
3 16 14 11 
3 154 158 155 
3 16 159 17 
3 18 17 159 
3 158 157 155 
3 154 160 158 
3 160 154 156 
3 158 161 157 
3 162 11 157 
3 18 159 163 
3 18 164 20 
3 163 165 18 
3 163 166 165 
3 167 20 164 
3 165 164 18 
3 168 167 164 
3 166 169 165 
3 16 11 162 
3 170 171 163 
3 172 166 163 
3 173 166 172 
3 174 171 170 
3 171 172 163 
3 171 175 172 
3 174 176 171 
3 175 177 172 
3 162 157 161 
3 162 159 16 
3 178 163 159 
3 156 5 4 
3 161 179 162 
3 180 159 162 
3 180 178 159 
3 181 163 178 
3 163 182 170 
3 163 181 182 
3 183 182 181 
3 184 183 181 
3 160 161 158 
3 178 185 181 
3 186 181 185 
3 161 187 179 
3 180 162 179 
3 188 185 178 
3 189 188 178 
3 190 185 188 
3 167 60 20 
3 191 60 167 
3 192 168 164 
3 193 169 166 
3 165 192 164 
3 168 194 167 
3 169 192 165 
3 177 173 172 
3 176 175 171 
3 173 193 166 
3 174 195 176 
3 177 196 173 
3 197 177 175 
3 176 197 175 
3 198 174 170 
3 198 195 174 
3 186 184 181 
3 182 198 170 
3 183 199 182 
3 199 198 182 
3 200 183 184 
3 201 186 185 
3 202 201 185 
3 190 202 185 
3 203 202 190 
3 194 191 167 
3 204 194 168 
3 192 204 168 
3 204 191 194 
3 205 192 169 
3 204 206 191 
3 206 204 192 
3 193 207 169 
3 196 193 173 
3 196 208 193 
3 197 209 177 
3 209 196 177 
3 210 195 198 
3 210 211 195 
3 212 198 199 
3 183 213 199 
3 212 210 198 
3 213 212 199 
3 200 213 183 
3 214 184 186 
3 215 186 201 
3 215 214 186 
3 188 216 190 
3 216 203 190 
3 217 216 188 
3 218 217 188 
3 203 201 202 
3 203 215 201 
3 219 91 89 
3 94 91 219 
3 220 94 219 
3 220 219 221 
3 191 69 60 
3 206 69 191 
3 87 222 223 
3 223 89 87 
3 96 94 220 
3 220 224 96 
3 224 129 96 
3 169 207 205 
3 205 206 192 
3 86 69 206 
3 206 205 86 
3 225 205 207 
3 225 86 205 
3 87 86 225 
3 222 87 225 
3 221 219 89 
3 221 89 223 
3 220 221 226 
3 176 209 197 
3 227 209 176 
3 195 227 176 
3 209 208 196 
3 208 207 193 
3 211 227 195 
3 209 225 207 
3 209 228 225 
3 209 207 208 
3 227 228 209 
3 228 227 211 
3 229 225 228 
3 229 222 225 
3 230 224 220 
3 231 211 210 
3 231 228 211 
3 232 230 220 
3 214 200 184 
3 231 210 212 
3 213 231 212 
3 200 231 213 
3 228 231 200 
3 228 200 214 
3 233 223 222 
3 233 221 223 
3 232 220 226 
3 234 224 230 
3 228 214 215 
3 229 228 217 
3 229 233 222 
3 235 221 233 
3 236 232 226 
3 237 203 216 
3 217 237 216 
3 237 215 203 
3 217 228 215 
3 217 215 237 
3 229 217 238 
3 233 229 239 
3 226 221 235 
3 236 226 235 
3 240 241 242 
3 123 242 241 
3 243 244 245 
3 246 243 247 
3 113 128 242 
3 241 240 246 
3 246 240 243 
3 248 241 246 
3 249 241 248 
3 113 242 123 
3 241 250 123 
3 251 241 249 
3 241 251 250 
3 252 253 244 
3 254 255 252 
3 244 254 252 
3 243 254 244 
3 243 256 254 
3 247 243 245 
3 256 243 128 
3 248 246 247 
3 240 128 243 
3 240 242 128 
3 129 97 96 
3 255 130 129 
3 127 130 255 
3 252 129 257 
3 252 255 129 
3 258 245 244 
3 259 127 255 
3 254 259 255 
3 258 260 245 
3 128 127 259 
3 261 259 262 
3 263 259 261 
3 259 263 262 
3 263 261 262 
3 254 256 259 
3 247 245 260 
3 256 128 259 
3 250 251 249 
3 257 129 224 
3 253 257 264 
3 265 244 253 
3 265 258 244 
3 257 253 252 
3 260 258 265 
3 266 249 248 
3 267 248 247 
3 264 257 224 
3 264 268 253 
3 268 265 253 
3 269 247 260 
3 266 248 267 
3 123 250 145 
3 250 249 266 
3 224 234 264 
3 268 264 270 
3 269 268 270 
3 268 260 265 
3 269 260 268 
3 269 271 247 
3 272 247 271 
3 267 247 272 
3 234 270 264 
3 273 269 270 
3 272 271 269 
3 234 230 232 
3 273 270 234 
3 273 272 269 
3 266 267 272 
3 250 274 145 
3 275 273 234 
3 272 273 276 
3 276 266 272 
3 250 277 274 
3 277 250 266 
3 0 3 278 
3 4 1 0 
3 4 0 278 
3 54 279 7 
3 279 15 7 
3 24 280 55 
3 50 280 24 
3 56 281 43 
3 56 282 281 
3 282 283 281 
3 282 284 283 
3 67 282 56 
3 43 285 51 
3 43 286 285 
3 281 286 43 
3 285 50 51 
3 287 286 281 
3 287 288 286 
3 288 289 286 
3 289 290 286 
3 283 291 281 
3 291 287 281 
3 292 289 288 
3 55 280 54 
3 50 293 280 
3 50 285 293 
3 294 295 286 
3 290 294 286 
3 289 296 290 
3 23 278 3 
3 54 297 279 
3 54 280 297 
3 286 295 285 
3 294 298 299 
3 300 301 299 
3 302 300 299 
3 298 302 299 
3 303 298 294 
3 280 304 297 
3 293 304 280 
3 285 305 293 
3 295 305 285 
3 299 295 294 
3 306 307 295 
3 308 295 307 
3 306 295 299 
3 301 306 299 
3 309 307 306 
3 310 308 307 
3 311 312 308 
3 23 313 278 
3 15 313 23 
3 314 305 295 
3 295 312 314 
3 308 312 295 
3 304 293 315 
3 304 315 316 
3 304 316 297 
3 15 279 313 
3 316 279 297 
3 279 316 313 
3 317 284 282 
3 67 318 282 
3 318 317 282 
3 284 319 283 
3 320 284 317 
3 320 319 284 
3 287 321 288 
3 321 292 288 
3 292 322 289 
3 319 291 283 
3 296 323 290 
3 322 296 289 
3 296 324 323 
3 323 294 290 
3 323 325 294 
3 325 303 294 
3 324 325 323 
3 326 298 303 
3 298 327 302 
3 327 300 302 
3 328 301 300 
3 327 329 300 
3 329 328 300 
3 330 307 309 
3 330 310 307 
3 310 311 308 
3 311 331 312 
3 67 332 318 
3 332 317 318 
3 332 320 317 
3 320 333 319 
3 334 287 291 
3 319 334 291 
3 321 335 292 
3 292 335 322 
3 334 321 287 
3 336 335 321 
3 322 337 296 
3 337 324 296 
3 335 337 322 
3 326 327 298 
3 329 338 328 
3 327 339 329 
3 339 338 329 
3 301 340 306 
3 340 309 306 
3 330 341 310 
3 341 311 310 
3 342 330 309 
3 341 343 311 
3 338 301 328 
3 338 340 301 
3 340 342 309 
3 332 333 320 
3 83 332 67 
3 110 332 83 
3 333 332 110 
3 83 106 110 
3 105 344 107 
3 107 345 110 
3 344 345 107 
3 344 105 108 
3 346 108 104 
3 109 346 104 
3 109 347 346 
3 333 334 319 
3 334 336 321 
3 336 348 335 
3 110 334 333 
3 334 110 336 
3 349 336 110 
3 348 336 349 
3 335 348 337 
3 348 324 337 
3 349 110 345 
3 326 339 327 
3 303 339 326 
3 324 303 325 
3 348 303 324 
3 349 303 348 
3 349 350 303 
3 350 339 303 
3 108 351 344 
3 352 341 330 
3 343 353 311 
3 342 352 330 
3 352 343 341 
3 339 340 338 
3 340 339 350 
3 350 352 342 
3 350 354 352 
3 354 343 352 
3 349 355 350 
3 350 342 340 
3 355 349 345 
3 344 355 345 
3 356 355 344 
3 344 351 356 
3 108 346 351 
3 347 357 346 
3 347 358 357 
3 311 353 331 
3 354 353 343 
3 355 354 350 
3 359 360 356 
3 360 355 356 
3 359 356 351 
3 361 362 359 
3 351 361 359 
3 357 351 346 
3 357 361 351 
3 363 358 347 
3 364 365 358 
3 358 365 357 
3 150 366 153 
3 367 368 369 
3 370 367 369 
3 370 368 367 
3 152 371 367 
3 152 367 150 
3 367 366 150 
3 368 370 369 
3 153 372 109 
3 366 371 153 
3 371 373 153 
3 367 371 366 
3 374 152 151 
3 374 375 152 
3 372 347 109 
3 373 376 153 
3 377 373 371 
3 152 377 371 
3 377 152 375 
3 151 149 378 
3 151 378 374 
3 372 363 347 
3 153 363 372 
3 376 379 153 
3 377 375 373 
3 153 379 363 
3 149 380 378 
3 379 376 381 
3 373 381 376 
3 375 382 373 
3 375 374 382 
3 380 383 378 
3 149 145 380 
3 363 384 364 
3 379 384 363 
3 384 379 385 
3 373 382 381 
3 374 378 383 
3 364 358 363 
3 384 385 364 
3 385 386 364 
3 386 387 364 
3 388 389 381 
3 386 390 387 
3 379 389 385 
3 382 388 381 
3 391 390 386 
3 386 392 391 
3 383 393 374 
3 374 393 382 
3 389 379 381 
3 388 394 389 
3 389 395 385 
3 392 386 385 
3 382 394 388 
3 395 392 385 
3 382 395 394 
3 391 392 395 
3 390 391 396 
3 396 391 397 
3 380 398 383 
3 274 399 145 
3 389 394 400 
3 395 389 400 
3 395 400 394 
3 382 393 395 
3 397 395 393 
3 397 391 395 
3 398 396 397 
3 399 396 398 
3 145 399 380 
3 383 398 393 
3 398 397 393 
3 380 399 398 
3 187 161 160 
3 401 178 180 
3 402 403 401 
3 189 401 403 
3 401 189 178 
3 404 189 403 
3 405 401 180 
3 406 407 402 
3 408 406 402 
3 160 409 187 
3 405 180 179 
3 410 408 401 
3 411 410 401 
3 412 410 411 
3 401 408 402 
3 413 408 410 
3 179 187 414 
3 415 179 414 
3 415 405 179 
3 411 401 416 
3 411 417 412 
3 160 418 409 
3 419 416 401 
3 420 419 401 
3 421 420 422 
3 421 419 420 
3 423 424 422 
3 425 419 421 
3 414 187 409 
3 401 405 314 
3 420 401 314 
3 426 427 312 
3 428 312 427 
3 428 420 314 
3 312 428 314 
3 420 428 422 
3 429 428 427 
3 423 422 428 
3 415 315 293 
3 293 305 415 
3 305 405 415 
3 314 405 305 
3 430 426 312 
3 431 430 312 
3 418 156 4 
3 316 414 409 
3 409 418 316 
3 415 414 315 
3 315 414 316 
3 418 160 156 
3 313 418 278 
3 418 4 278 
3 316 418 313 
3 432 403 402 
3 433 404 403 
3 432 433 403 
3 406 434 407 
3 407 432 402 
3 434 432 407 
3 435 410 412 
3 435 413 410 
3 436 406 408 
3 417 435 412 
3 413 436 408 
3 437 435 417 
3 438 417 411 
3 416 438 411 
3 439 438 416 
3 438 437 417 
3 422 425 421 
3 440 424 423 
3 441 425 422 
3 424 441 422 
3 442 416 419 
3 425 442 419 
3 442 439 416 
3 443 427 426 
3 428 444 423 
3 445 443 426 
3 430 445 426 
3 444 440 423 
3 446 447 428 
3 429 446 428 
3 443 448 427 
3 448 429 427 
3 447 444 428 
3 449 446 429 
3 431 445 430 
3 448 449 429 
3 331 431 312 
3 433 450 404 
3 450 189 404 
3 218 188 189 
3 450 218 189 
3 451 433 432 
3 452 434 406 
3 434 451 432 
3 436 452 406 
3 453 436 413 
3 435 454 413 
3 440 455 424 
3 455 441 424 
3 456 425 441 
3 456 457 425 
3 455 456 441 
3 458 442 425 
3 459 440 444 
3 457 458 425 
3 445 460 443 
3 460 448 443 
3 461 460 445 
3 431 461 445 
3 447 459 444 
3 462 461 431 
3 460 463 448 
3 463 449 448 
3 464 450 433 
3 451 464 433 
3 464 218 450 
3 451 238 464 
3 464 238 218 
3 238 217 218 
3 239 229 238 
3 452 451 434 
3 238 451 452 
3 232 236 465 
3 465 236 466 
3 465 467 232 
3 454 453 413 
3 454 435 437 
3 436 453 452 
3 453 238 452 
3 454 238 453 
3 468 238 454 
3 469 239 238 
3 233 239 470 
3 438 454 437 
3 468 454 438 
3 471 438 439 
3 471 468 438 
3 238 468 471 
3 469 238 472 
3 235 233 470 
3 236 235 466 
3 459 455 440 
3 455 457 456 
3 442 471 439 
3 458 471 442 
3 455 472 457 
3 458 472 471 
3 472 458 457 
3 472 238 471 
3 362 470 469 
3 469 470 239 
3 473 235 470 
3 466 235 473 
3 461 462 460 
3 462 463 460 
3 463 446 449 
3 446 459 447 
3 462 354 463 
3 472 459 446 
3 472 455 459 
3 354 446 463 
3 472 446 354 
3 360 472 354 
3 469 472 360 
3 473 470 362 
3 474 465 466 
3 353 431 331 
3 353 462 431 
3 353 354 462 
3 360 354 355 
3 359 362 469 
3 469 360 359 
3 473 362 361 
3 466 361 475 
3 466 473 361 
3 476 466 475 
3 365 361 357 
3 475 361 365 
3 365 477 475 
3 467 234 232 
3 276 273 275 
3 266 276 277 
3 275 234 467 
3 478 276 275 
3 474 467 465 
3 478 479 276 
3 479 277 276 
3 277 480 274 
3 481 467 474 
3 275 467 482 
3 482 479 275 
3 479 478 275 
3 483 277 479 
3 480 277 483 
3 482 467 481 
3 484 485 486 
3 485 487 486 
3 485 484 487 
3 484 486 487 
3 488 481 474 
3 489 481 488 
3 482 481 489 
3 490 479 482 
3 491 483 479 
3 474 466 476 
3 477 492 476 
3 492 488 476 
3 476 488 474 
3 489 488 492 
3 490 482 489 
3 492 493 489 
3 494 479 490 
3 491 479 494 
3 364 477 365 
3 477 476 475 
3 477 364 387 
3 495 492 477 
3 387 495 477 
3 495 493 492 
3 496 495 387 
3 496 387 390 
3 497 494 490 
3 496 498 495 
3 499 496 390 
3 498 496 499 
3 491 480 483 
3 490 489 500 
3 500 489 493 
3 498 493 495 
3 493 498 500 
3 499 390 396 
3 501 494 497 
3 499 502 498 
3 502 491 494 
3 396 503 499 
3 480 504 505 
3 504 480 491 
3 497 490 500 
3 498 501 500 
3 500 501 497 
3 502 501 498 
3 502 494 501 
3 503 502 499 
3 505 491 502 
3 396 399 503 
3 504 491 505 
3 274 506 399 
3 399 506 503 
3 480 506 274 
3 480 505 506 
3 506 505 503 
3 505 502 503 
CELL_TYPES 1000
5
5
5
5
5
5
5
5
5
5
5
5
5
5
5
5
5
5
5
5
5
5
5
5
5
5
5
5
5
5
5
5
5
5
5
5
5
5
5
5
5
5
5
5
5
5
5
5
5
5
5
5
5
5
5
5
5
5
5
5
5
5
5
5
5
5
5
5
5
5
5
5
5
5
5
5
5
5
5
5
5
5
5
5
5
5
5
5
5
5
5
5
5
5
5
5
5
5
5
5
5
5
5
5
5
5
5
5
5
5
5
5
5
5
5
5
5
5
5
5
5
5
5
5
5
5
5
5
5
5
5
5
5
5
5
5
5
5
5
5
5
5
5
5
5
5
5
5
5
5
5
5
5
5
5
5
5
5
5
5
5
5
5
5
5
5
5
5
5
5
5
5
5
5
5
5
5
5
5
5
5
5
5
5
5
5
5
5
5
5
5
5
5
5
5
5
5
5
5
5
5
5
5
5
5
5
5
5
5
5
5
5
5
5
5
5
5
5
5
5
5
5
5
5
5
5
5
5
5
5
5
5
5
5
5
5
5
5
5
5
5
5
5
5
5
5
5
5
5
5
5
5
5
5
5
5
5
5
5
5
5
5
5
5
5
5
5
5
5
5
5
5
5
5
5
5
5
5
5
5
5
5
5
5
5
5
5
5
5
5
5
5
5
5
5
5
5
5
5
5
5
5
5
5
5
5
5
5
5
5
5
5
5
5
5
5
5
5
5
5
5
5
5
5
5
5
5
5
5
5
5
5
5
5
5
5
5
5
5
5
5
5
5
5
5
5
5
5
5
5
5
5
5
5
5
5
5
5
5
5
5
5
5
5
5
5
5
5
5
5
5
5
5
5
5
5
5
5
5
5
5
5
5
5
5
5
5
5
5
5
5
5
5
5
5
5
5
5
5
5
5
5
5
5
5
5
5
5
5
5
5
5
5
5
5
5
5
5
5
5
5
5
5
5
5
5
5
5
5
5
5
5
5
5
5
5
5
5
5
5
5
5
5
5
5
5
5
5
5
5
5
5
5
5
5
5
5
5
5
5
5
5
5
5
5
5
5
5
5
5
5
5
5
5
5
5
5
5
5
5
5
5
5
5
5
5
5
5
5
5
5
5
5
5
5
5
5
5
5
5
5
5
5
5
5
5
5
5
5
5
5
5
5
5
5
5
5
5
5
5
5
5
5
5
5
5
5
5
5
5
5
5
5
5
5
5
5
5
5
5
5
5
5
5
5
5
5
5
5
5
5
5
5
5
5
5
5
5
5
5
5
5
5
5
5
5
5
5
5
5
5
5
5
5
5
5
5
5
5
5
5
5
5
5
5
5
5
5
5
5
5
5
5
5
5
5
5
5
5
5
5
5
5
5
5
5
5
5
5
5
5
5
5
5
5
5
5
5
5
5
5
5
5
5
5
5
5
5
5
5
5
5
5
5
5
5
5
5
5
5
5
5
5
5
5
5
5
5
5
5
5
5
5
5
5
5
5
5
5
5
5
5
5
5
5
5
5
5
5
5
5
5
5
5
5
5
5
5
5
5
5
5
5
5
5
5
5
5
5
5
5
5
5
5
5
5
5
5
5
5
5
5
5
5
5
5
5
5
5
5
5
5
5
5
5
5
5
5
5
5
5
5
5
5
5
5
5
5
5
5
5
5
5
5
5
5
5
5
5
5
5
5
5
5
5
5
5
5
5
5
5
5
5
5
5
5
5
5
5
5
5
5
5
5
5
5
5
5
5
5
5
5
5
5
5
5
5
5
5
5
5
5
5
5
5
5
5
5
5
5
5
5
5
5
5
5
5
5
5
5
5
5
5
5
5
5
5
5
5
5
5
5
5
5
5
5
5
5
5
5
5
5
5
5
5
5
5
5
5
5
5
5
5
5
5
5
5
5
5
5
5
5
5
5
5
5
5
5
5
5
5
5
5
5
5
5
5
5
5
5
5
5
5
5
5
5
5
5
5
5
5
5
5
5
5
5
5
5
5
5
5
5
5
5
5
5
5
5
5
5
5
5
5
5
5
5
5
5
5
5
5
5
5
5
5
5
5
5
5
5
5
5
5
5
5
5
5
5
5
5
5
5
5
5
5
5
5
5
5
5
5
5
5
5
5
5
5
5
5
5
5
5
5
5
5
5
5
5
5
5
5
5
5
5
5
5
5
5
5
5
5
5
5
5
5
5
5
5
5
5
5
5
5
5
5
5
5
5
5
5
5
5
5
5
5
5
5
5
5
5
5
5
5
5
5
5
5
5
5
5
POINT_DATA 507
VECTORS displacement double
0 0 0
0 0 0
0 0 0
0 0 0
0 0 0
0 0 0
0.000998188019223 0.00107955611176 -0.000390230879673
0.000269068219088 -2.89620293921e-05 8.15864704143e-05
0.000542569973313 7.50674040256e-05 8.4506670457e-06
0.00131330905034 0.0011776032437 -0.000524723872316
0.00159144607673 0.000990160678015 -0.00015204370197
0.000936555032426 0.00103789306654 -0.000816909949344
0 0 0
0.00119242920197 0.000732726282609 3.07020777211e-05
0.00199771754194 0.00194697854705 -0.0007091493783
0.000356209815268 -0.000124645159121 -0.000258845486104
0.000904851489991 0.00157155330498 -0.000826853707647
0.00465023282697 0.00500260162881 -0.00159751717141
0.00591949747102 0.00415558847456 -0.00183724122396
0.00750351396785 0.00367038592974 -0.000934848256592
0.00788286137733 0.00612163998993 -0.00267174099424
0.0566082416962 -0.00225108514858 -0.000641590750596
0.00883362854895 0.00447009060776 -0.00108829496843
0 0 0
0.000964295304549 5.39139875002e-05 0.000244221117745
0.00245854227341 0.000472508291127 -0.00019505351001
0.00522380546433 0.0027612319885 -0.000409573639868
0.00990937927537 0.00525324073402 -0.00192133580392
0.00927540741512 0.00265172881838 -0.000107790705555
0.00858750440447 0.00316706712024 -0.00575343052602
0.00974748180063 0.00146173226271 -0.000366472557517
0.0103781340245 0.00446408429615 -0.00147237148967
0.0443648279835 0.00165809931535 -0.0015462697951
0.0457148448586 -0.00151478253968 0.000631485622866
0.00685102613012 0.0022444174028 -0.000455874013616
0.0107631060965 0.00385131394812 -0.000993333801947
0.00998619291141 0.000793843828505 -0.000303806613003
0.0452718153122 -0.00548426885787 -5.82010550341e-05
0.0329402318798 0.000574495847693 0.00274755222559
0.0128232288624 -0.00221487556595 -0.00350649851249
0.0581914436945 -0.0065991743518 -0.00174680148079
0.052356209504 -0.00413273591761 0.00817805371311
0.0496832700432 -0.00285800881619 -0.00337867487535
0.00739165787256 -0.00118318617385 0.000882836708628
0.0339451663915 -0.0040260090114 0.000174593398279
0.0120546153174 0.000837450566124 -0.000509533552805
0.0133064098491 -0.00113084317164 0.0023400791806
0.0146818561476 -0.00216297408132 -0.000219457272449
0.0391058198147 -0.00538341305605 0.0011751885146
0.044197269376 -0.00774405374033 0.000156707184576
0.00266029619053 -0.00210249929359 0.000512792133345
0.00538504592171 -0.00243235311929 0.000536989942191
0.0148540541965 -0.00195039222621 -0.00120547768329
0.0503827455108 -0.0129185994027 -0.00136126576033
0.000466105674291 -9.1400864078e-06 -5.0732019986e-05
0.000979330257832 -0.000157546001994 -3.22146400566e-06
0.00902303841078 -0.00316081832647 -4.22790125689e-05
0.0236689813265 -0.00721441234377 0.0043116767649
0.0371308548647 -0.0106586012801 0.0020785773435
0.0523113654925 -0.000298280518392 -0.0014918178266
0.06408848895 -0.00453424184406 -0.00136550175232
0.050577470768 -0.00109377780346 -0.00178451512216
0.0606707939376 -0.00278464382843 -1.29531132048e-05
0.068677967111 -0.00869229774662 0.000117549469746
0.0767332882804 -0.0156227185806 -0.00899434381926
0.0672712750305 -0.0145178718521 -0.00164611120759
0.077408798318 -0.0207168129888 -0.00198525093497
0.05346688899 -0.0170848052631 -0.000405650676125
0.0752459838125 -0.0205023941094 -0.00594056705004
0.0972660648148 -0.0209624897242 -0.00462645981465
0.100268093975 -0.0241418570414 -0.00476904033621
0.0994768185181 -0.0235115716477 -0.00539406460283
0.0984385096418 -0.0246469168377 -0.00439784297094
0.0977608611212 -0.0252881532012 -0.00588550804477
0.100357298967 -0.0268381420961 -0.00658719928078
0.0745825100863 -0.0176406090863 -0.00902482191054
0.0979413229587 -0.023553709662 -0.00694233915387
0.0805017798318 -0.0187587148881 -0.00394154056988
0.0771520196956 -0.0185599726697 -0.00361044359328
0.101567401718 -0.0283399883617 -0.00658651016799
0.100142465673 -0.027595287732 -0.00711299349968
0.100431913433 -0.0289247850126 -0.00578611858251
0.0827245522253 -0.0239587629024 -0.0040307748487
0.0989618160918 -0.0303087353624 -0.00773398465327
0.100043092029 -0.0300838209967 -0.00474573655419
0.0995922428932 -0.0256538984343 -0.00501410072399
0.0984988790457 -0.0255028801268 -0.00388224648544
0.0999574417308 -0.0254150081808 -0.00287313295492
0.100494800744 -0.0259495243791 -0.00536133575603
0.102401045259 -0.029818937031 -0.0034799332415
0.103009236192 -0.0300888720879 -0.00435171241305
0.102563155381 -0.0317108210607 -0.00401083804707
0.104304970626 -0.0332465011565 -0.00513747207778
0.104371340317 -0.0334852502846 -0.00466246361667
0.103329221417 -0.0327088219037 -0.00254301344567
0.104107888215 -0.0356854942274 -0.00326479607775
0.103963677934 -0.0352300923296 -0.00200270425121
0.10397780199 -0.0387039925759 -0.0021373763313
0.104897722546 -0.0348791917635 -0.00452274737331
0.100030431324 -0.0254119908138 -0.0046453586158
0.100420173026 -0.0278632923315 -0.00633149438029
0.105031170734 -0.0328387178187 -0.00526581737942
0.102480978331 -0.0276288032039 -0.00609625496559
0.106176043797 -0.0348268068002 -0.00440296283615
0.105928469983 -0.0335264372445 -0.00468891796812
0.104693403596 -0.0323137622429 -0.00498132604415
0.101212537603 -0.0300933384863 -0.0060534846837
0.103207997909 -0.0310296656091 -0.00570011999582
0.106052385219 -0.0337940432438 -0.00440449891232
0.106836819109 -0.0345015096903 -0.00375776599994
0.101748057959 -0.0341497446205 -0.00448377859091
0.1 -0.05 0
0.1 -0.05 0
0.1 -0.05 0
0.100899188043 -0.0498689619216 0.000323154271396
0.103808218278 -0.0491817816274 0.000871561912827
0.103887939285 -0.045675836585 -0.000184943084416
0.100396463167 -0.0487378268674 -0.000636559561434
0.1 -0.05 0
0.100363667428 -0.049346676231 8.07450136745e-05
0.1 -0.05 0
0.1 -0.05 0
0.1 -0.05 0
0.1 -0.05 0
0.101099785082 -0.0479163482076 -3.76133887723e-05
0.1 -0.05 0
0.10241677987 -0.0450597443232 -0.000548136263165
0.102829985193 -0.0440281055743 -0.000545976476298
0.1 -0.05 0
0.104160627314 -0.0393792852052 -0.00106130603921
0.103667216849 -0.0413411950103 -0.00133195469636
0.104513150124 -0.0409023117196 -0.00159640970327
0.103732896288 -0.0431525625503 -0.00178752987512
0.104581895981 -0.0463904081259 -0.000470244642003
0.1 -0.05 0
0.1 -0.05 0
0.10499676343 -0.040200256831 -0.00177012878674
0.104246078559 -0.0428030831653 -0.000863696780941
0.137845314082 -0.0465777058884 -0.0569409161441
0.120736543301 -0.0565530165627 -0.0293514177329
0.101975312027 -0.0661502319931 0.000667563304606
0.1 -0.05 0
0.105899497457 -0.0389681337826 -0.00247694903514
0.106406596964 -0.0375127216058 -0.00314755845752
0.1 -0.05 0
0.098052419725 -0.0335061658375 -0.00070751107334
0.102454726726 -0.0414269770495 -0.000825554660673
0.101043476983 -0.044674447639 -0.00074906985096
0.106528553276 -0.0355939747424 -0.00331145736871
0.097056669311 -0.0374142384023 -0.00218605247429
0.105312537428 -0.036452162201 -0.00265675277213
0.100963867918 -0.0380836011675 -0.00110371602722
0.10356282404 -0.0374934058635 -0.00140425310014
0.106669010302 -0.0346550125622 -0.00290900521679
-0.000181856559718 0.000342085885332 -0.000597993103995
0.000249469231648 0.00057436743208 -0.000411194337389
-0.000536800335788 -0.00117751144706 0.00129461529252
0.000209158914198 0.000536064811738 -0.000521322739817
-0.000320065397339 -0.000322866731661 0.000417934976064
0.0021624688598 0.00296860497895 -0.00198803399579
-0.000601433124102 -0.00125235664464 0.00142531360516
-0.000377241875398 -0.000340304289126 0.00043432031279
0.000174154800295 -0.000699953564358 0.000141227764793
0.00428161786147 0.00187258695821 -0.00170315068097
0.00771390702181 0.00359186738957 -0.00257394559331
0.00812490483061 0.00573785878804 -0.00141865717244
0.0074296337572 0.00366101231175 -0.00147689141826
0.0082844666036 0.00449674513959 -0.00267086744588
0.0340723916266 0.0036964310675 0.00148879168497
0.0583510664174 -0.0025534234965 9.03445147452e-05
0.00142260663867 -0.000197201879406 -0.0026361612895
0.00370392868936 0.00364832062718 -0.00369228618992
0.00602298607694 0.00284685877954 -0.00166226325576
0.028376698534 -0.000793400977866 -0.00190456781984
0.00630066828026 0.00130856918391 0.00023627804794
0.0319922408875 -0.000859111526288 -0.00165301133561
0.0695454033631 -0.00910567810062 -0.00105109067936
0.0521813332351 -0.00428217603577 -0.000956079680498
0.00190650371299 -0.00230014944026 0.000546873500703
-1.72433610626e-05 -0.00364827726044 0.00151368131014
-0.000464020866784 -0.00346470606771 0.00145225857676
0.00511334389538 -0.00116721331593 0.000980198298587
0.00478941374432 -0.000660077140045 -0.00159741007598
0.0558774888468 -0.00891439124999 0.000627453852763
0.0549783091889 -0.011692617816 -0.00011994277569
0.00346742299554 -0.00367352997537 0.000255369770146
0.0464717346334 -0.0107951688788 0.0007860743557
0.000136034784359 -0.00222978785117 0.00212466681343
0.00556538002206 -0.00505289687651 0.00204880662579
0.00718661500127 -0.00679156173128 -0.000762528059108
0.0352040119403 -0.00934707782908 0.00232000357487
0.0695452915671 -0.00900367478357 -0.00199188502772
0.0513701006574 -0.00143106052209 -0.000871685227992
0.065121786538 -0.00698708374181 -0.000627094362059
0.0412341972567 0.00470879098121 0.00333928030753
0.0668934963406 -0.0112625063238 0.000354709361054
0.0700972798476 -0.0113290046746 -0.00108729494729
0.0726889718712 -0.0095387005352 -0.00109390282374
0.0568607831532 -0.00739619858946 0.00242659975034
0.0574862480409 -0.00795139027959 0.00261728136536
0.100515632784 -0.0248843003797 -0.00106448377419
0.0587711747889 -0.0125092579598 0.000968499979118
0.0575501613213 -0.0145425283398 0.00100617100783
0.0671143640682 -0.0177881102576 1.65526339563e-05
0.0711850603609 -0.00774638293032 8.36775502475e-05
0.0981886277684 -0.0233023569687 -0.00358100935504
0.0990953335479 -0.0231238556357 -0.00300285599602
0.0986269310268 -0.0238734652032 -0.00346225897115
0.0983442411944 -0.0240576376729 -0.00254088342972
0.0991593595936 -0.0243940477322 -0.00229487611952
0.084066995316 -0.0185462192521 -0.00179181668479
0.0990802615351 -0.0257040717171 -0.00287165258023
0.0796798238541 -0.0176185957292 -0.00140285507713
0.0989745184274 -0.0250670874578 -0.0027763447328
0.102517049908 -0.0268013150689 -0.00219434535939
0.0999952493193 -0.0271701578955 -0.00349816899365
0.0785942331022 -0.0220845913805 -0.00246225817339
0.102231353137 -0.0266317616604 -0.00304279657283
0.103545299883 -0.0293288328061 6.60606865599e-05
0.102748480615 -0.0321822823972 -0.00232819379708
0.10476822716 -0.0341914980916 -0.00065040542837
0.105061444222 -0.0344685870051 -0.00163645427065
0.102145697748 -0.0275815235796 -0.00151759622987
0.103872664583 -0.0299865633255 -0.00202992622132
0.105558222566 -0.0356397239687 -0.000289751289869
0.0994315798915 -0.0265409456344 -0.00227895295186
0.106375841908 -0.0346614573228 -0.0013368961154
0.0984188454281 -0.0236145123027 -0.00231658818996
0.100235505139 -0.0279293013855 -0.00194885771727
0.103045409517 -0.0292929455408 -0.00175272736613
0.106990556874 -0.0365818835709 -0.00104922002916
0.0996133210345 -0.0262597894048 -0.0029365835525
0.107824604144 -0.0360473432197 -0.00209483205795
0.105817261249 -0.0332635927708 -0.00315268791872
0.107709284431 -0.0385276567177 -0.00098454541883
0.107117252074 -0.0354548032263 -0.00337800209253
0.107537463913 -0.0355781933365 -0.00251495673021
0.104420961784 -0.0279439833336 -0.00186341507322
0.10346356565 -0.0327337095211 -0.00306577102642
0.105093127158 -0.0332946982388 -0.00350719440995
0.1 -0.05 0
0.1 -0.05 0
0.1 -0.05 0
0.1 -0.05 0
0.105492473952 -0.0502741553293 -0.000836493791424
0.103356857901 -0.0508026423691 -0.000103131512605
0.1 -0.05 0
0.1 -0.05 0
0.1 -0.05 0
0.1 -0.05 0
0.1 -0.05 0
0.1 -0.05 0
0.103798462484 -0.0464420728809 -0.00051552622344
0.105751327836 -0.0467849713666 -0.00134798352188
0.101149697208 -0.0482611592098 0.00018858426755
0.103706703616 -0.0422776379418 -0.000697387087258
0.1 -0.05 0
0.105115054711 -0.0419616898733 -0.000734941289189
0.104997043353 -0.0491981403358 -0.000846072473012
0.102104463209 -0.0465392823118 -0.000140531193525
0.101807968889 -0.048547501806 7.47342004214e-05
0.103543777163 -0.0933431625501 -0.0236574963396
0.114543610564 -0.052054682443 -0.00595260375517
0.0980423311777 -0.0550676601773 -0.00332458372099
0.106471462642 -0.0404451119987 -0.000369102046257
0.106175359036 -0.0457475626817 -0.00146245573
0.101762099743 -0.045024607208 0.000295139368006
0.1 -0.05 0
0.105009482448 -0.0438965707704 -0.000294885960151
0.10424138053 -0.041960898799 5.59007029957e-05
0.106804326683 -0.0407036056765 -0.000297816418265
0.102177505651 -0.0457264537614 -8.46548396678e-05
0.103772518544 -0.0427312246839 -0.000395927012326
0.106416120768 -0.0395558717492 -0.000803733104609
0.0996327993636 -0.0341864557264 -0.000373953501465
0.107065306373 -0.0377816579481 -0.00175569521605
0.104768530333 -0.0392479127696 -0.000974827947219
0.100096425291 -0.0394368728847 0.000106861581652
0 0 0
0.00054296503208 0.000135260287219 -0.000109184408454
0.000914774565021 0.000157522526925 0.000425579490361
0.00948865181056 -0.00499461801449 0.00412743940526
0.00450301344995 -0.00487170290738 0.000973546734123
-0.0140323885786 -0.0053551087665 0.0158989530973
0.0726647306465 -0.0168985739325 -0.00404166629992
0.00695323734802 -0.00788924878611 0.00151077803309
0.00911277528687 -0.00757720886813 0.00268223365108
0.00894065840742 -0.0108477480576 0.00382133456626
0.0115114396723 -0.00994239442611 0.00660130820308
0.0127151091564 -0.00902130548943 0.0015020763875
0.0119385725166 -0.00947247265793 0.00434541989382
0.0388405725832 -0.0164424430334 9.77232981132e-05
0.0432597160594 -0.0209446498631 0.00456681178564
0.00309472304761 -0.00482392527228 0.00182820657096
0.0131807922241 -0.0124238318462 0.00751830193121
0.0097837249773 -0.010419698066 0.00454943108167
0.038318492589 -0.0185648719024 0.00344175227
0.00133596453423 -0.00095105213777 0.000122238574935
0.0363094965816 -0.0192813293557 0.0035886767755
0.0120152219246 -0.0122297860048 0.00569376576184
0.0347825888022 -0.0214403664696 0.00875383478264
0.0489578605978 -0.0242149762154 0.00532834353921
0.0299667182527 -0.0187010928415 0.00691712518023
0.070084384914 -0.0339745469542 -0.00257488205153
0.00262317299592 -0.00208838019493 0.000579309398116
0.00753172666128 -0.0132640814053 0.0044866518374
0.0165485886198 -0.0161968963738 0.0166138332834
0.0153608709716 -0.0143112455536 0.017594737732
0.0133588011182 -0.0126071331805 0.0163055501277
0.0506564591397 -0.0276963447853 -0.0121097956957
0.0490757110287 -0.0277582656897 -0.030550194723
0.0569746646472 -0.0320526344141 0.0144679018022
0.0117778308998 -0.0179295362484 0.00228189873761
0 0 0
0.00658493231185 -0.0134776608622 0.00775143667737
0.00164021353012 -0.00050798616571 0.00102834153808
0.00228615806401 -0.00158704262611 0.00106741906305
0.0785967626984 -0.0217181725712 0.0189949240177
0.0568542365324 -0.0208386941294 -0.00921383174953
0.0644708465038 -0.0221000747517 -0.000716386755981
0.0753144902397 -0.0250832531213 0.000152024136571
0.0546038546706 -0.0233897537371 -0.00276600541748
0.0508552013082 -0.0236333541787 0.00375402796535
0.0363682065141 -0.0190136391843 0.00351801444407
0.0744825163174 -0.0298469094397 -0.00263152203632
0.0554940566167 -0.0263178717655 -0.00176918528545
0.0784873650684 -0.0370830116224 0.00144878490807
0.0690088829382 -0.0264590813762 0.00327685434213
0.0728778273812 -0.0298188933347 0.000824595326957
0.0709216186281 -0.0271025130411 0.00273998744685
-0.00139052213697 -0.0306925188009 0.0825061296146
0.0632251522657 -0.0321198441881 -0.0140204677244
0.0974647592744 -0.0326307609276 -0.00749474165645
0.0991642428362 -0.0333046897828 -0.00472771104187
0.10420798335 -0.0355904346802 -0.00484928530309
0.0836297109541 -0.0317355089929 -0.00359643291299
0.100075845322 -0.0352465745826 -0.00109489578169
0.0830714703762 -0.032078326992 -0.00375229705946
0.110249538832 -0.0402660887662 0.00491958552846
0.107918174377 -0.035815100637 0.00666444439878
0.101940347611 -0.0403077391663 5.48181023338e-05
0.119549692282 -0.0342888767597 0.0423125917061
0.103751962979 -0.0421939472025 0.00285838527916
0.0927279381732 -0.0330908559697 0.00528432148014
0.104951024295 -0.0345999013266 -0.00441492875659
0.103333739637 -0.0356347441118 -0.00435555416956
0.106270613124 -0.0342535406054 -0.00379189216282
0.106375133446 -0.0342696956943 -0.00343993338086
0.101539908643 -0.0354037372669 -0.00213331487747
0.101895910026 -0.0360687938179 -0.00537490042565
0.104116614111 -0.0382025443457 -0.0048458509314
0.105170087146 -0.035176789302 -0.0040842673014
0.0961249891364 -0.0341495119138 -0.000745150021969
0.107313187699 -0.039287888578 -0.0129144170464
0.102364246215 -0.03783762692 -0.00563247866472
0.10276987647 -0.0378214984542 -0.00448987753805
0.104755707625 -0.0361716045346 -0.00450970828923
0.105435339831 -0.0358100531325 -0.00407614477606
0.106085261636 -0.0351592357793 -0.00375856545507
0.104747495754 -0.0364120859739 -0.00496990752144
0.103525958431 -0.0386158509212 -0.00563126608498
0.105170202163 -0.036700587269 -0.00503935834252
0.104924318318 -0.0362159240951 -0.00536795949816
0.106274767745 -0.0335101465757 -0.00273476179492
0.1061957476 -0.0339446493656 -0.00328684773868
0.106147500558 -0.0357427223327 -0.00418580414438
0.105582349249 -0.035465936998 -0.00240530443273
0.104535645306 -0.0363638844111 -0.00192726681448
0.0296879681731 -0.00828009631525 -0.139498080888
0.100384239357 -0.0369309573383 -0.0382830197585
-0.0564369523941 0.0567371411024 0.0674401797284
0.104252897166 -0.0353774201842 -0.00173039546637
0.106798324559 -0.0341602928258 -0.00301746178349
0.1039574233 -0.0338653647097 -0.00176789736463
0.100847912071 -0.0337686302904 -0.00100755673675
0.101751011981 -0.0321490343937 -0.00125269477574
0.104958262686 -0.0328490583131 -0.00209811246444
0.101953365287 -0.0332951624786 -0.00123603957276
0.100164070807 -0.0334475483366 -0.00091439929775
0.105203560573 -0.0323068921432 -0.00218411456517
0.09858970629 -0.0304450316178 -0.000721231450502
0.105599904244 -0.0319013492602 -0.00233188139419
0.10184719053 -0.0308207958071 -0.00138941660892
0.100039635733 -0.0292822510974 -0.00115758781656
0.105503716926 -0.0327551242281 -0.00259606710399
0.104574874918 -0.0308137528168 -0.00214917700451
0.104148274153 -0.0321526254449 -0.00221472816848
0.105924913149 -0.0336570621738 -0.0031142140965
0.104788468333 -0.0301454886535 -0.00214076011541
0.105865176437 -0.0295885744828 -0.00250170549618
0.103796962464 -0.0319087528247 -0.00233382468832
0.101509908848 -0.030796098176 -0.00165431116896
0.101986513891 -0.0299911399834 -0.00155646429741
0.101442251207 -0.0291508434877 -0.00140959546903
0.103720816678 -0.0289784122294 -0.00187201629369
0.102144539917 -0.0286301398551 -0.00150287692378
0.100550214084 -0.0303033127434 -0.00149128385448
0.100778962199 -0.0295189909128 -0.00135653592727
0.0990208523828 -0.0272192146864 -0.00100930099549
0.0989194419353 -0.0303510888017 -0.000983046298487
0.103908906396 -0.0280126392561 -0.00192675323222
0.00607765731166 -0.00907778614879 0.00431868005022
5.70911302555e-05 -0.00360574400489 0.00314184955443
0.0047681871226 -0.00657262516068 -0.000749255553342
0.0333519161571 -0.0171975768432 -0.00134311431018
0.00364932584313 -0.0137010882074 0.00685659004018
0.0355126712224 -0.0135664824459 0.00135545424096
0.027613760218 -0.0148023858148 -0.00652527793071
-0.00607816425173 -0.0163325747844 -0.00961843994476
0.00114979483018 -0.00184778251251 0.00209677521815
-0.00116555336509 -0.0199395944952 -0.0667072730246
0.140050946761 -0.0161825226298 0.116831944486
0.124272838423 -0.0154786935877 0.129397179008
0.0763741173923 -0.0183321850035 0.0110162183703
0.00236524216821 -0.00271184989556 0.00245650695731
0.00212107802319 -0.0078135094595 0.00327288087891
0.00415230876498 -0.0185298364514 -0.0711317984035
0.0922245271084 -0.0181825320081 0.0611113726507
0.00249746810903 -0.0017666768168 0.00171437628446
-0.0508612152963 -0.0290597436436 0.0738955972356
0.000831653321069 -0.00708857888188 0.00992467313014
0.0142780080073 -0.0196306379432 0.00334767898375
0.00239164975418 -0.0179092037235 -0.0073992380836
-0.000582070175921 -0.0133973786382 0.00189417304263
0.0550428364439 -0.0218946979656 0.00893617996951
0.0644641479637 -0.022764880634 0.00625816467688
0.0107454469031 -0.0163991948104 0.00873150628665
0.00985787321965 -0.0180610038855 0.00964253815516
0.0081273396289 -0.0198582300557 0.0161795223132
0.0137259040341 -0.0166964986277 0.0117266750607
0.031722246232 -0.0221214845241 0.00616866840933
0.0659008649352 -0.0305418243924 0.000737918440365
0.0589480135745 -0.0127088810467 0.00489373970762
0.0690942884144 -0.021143739685 0.00371427005708
0.0696007224976 -0.0243145038275 0.0112997916153
0.00403606042207 -0.0171440386132 -0.00124977496878
0.0912344551027 -0.0186342714219 -0.00345588715161
0.0161950294704 -0.0199440090423 -0.0230722503717
-0.0299177880523 -0.019961269634 -0.0451036877252
0.0114351349338 -0.0230253840208 0.0643330050102
0.094085152039 -0.0278477967347 0.0229026817469
0.0857031453116 -0.022139541095 0.0438685256175
0.100723762316 -0.018959442497 -0.000464267643808
0.042262294341 -0.0205377466216 -0.00770757805111
0.0803318280064 -0.0264258084607 0.00910201522873
0.0523123585151 -0.0258691229036 0.00556544898527
0.10562129969 -0.0398848286478 -0.00154199918837
0.062494151105 -0.0214878070303 0.00443526682262
0.0733028208547 -0.0295715200956 0.00423734886444
0.0718604529326 -0.0318878242798 0.00442560388218
0.073490057613 -0.0222454923667 0.00561649628372
0.101433900637 -0.0290105811551 -0.00874374045643
0.0905426951699 -0.0303559577923 -0.0063505585541
0.0848244113267 -0.0346600140267 -0.0171835578759
0.113737738436 -0.0311325359624 -0.00843123608676
0.0929294925973 -0.03476730226 -0.070922189449
0.0874431301413 -0.03173356385 -0.0291824299546
0.0943280546425 -0.0356978029454 -0.0653983285051
0.0760941545514 -0.0355218682034 0.0118263018554
0.102516730919 -0.0408918780296 -0.0134175082868
0.0965536845446 -0.0346964701531 -0.0087659463109
0.10206350325 -0.0356720821433 -0.0104920295143
0.0999340868138 -0.0377644972049 -0.00327718292513
0.103277491503 -0.0384175407011 -0.0051497452908
0.0972695506804 -0.0309587077445 -0.00728022720977
0.107990091557 -0.03620027821 -0.00349211963783
0.10719324169 -0.036393219399 -0.00457514540932
0.108037946289 -0.0372388261163 -0.00202606817478
0.159546552653 -0.0282581629214 0.0266726064213
0.103840506619 -0.0380077151766 -0.00646749431413
0.105611413909 -0.0354780293581 -0.00454454424513
0.106433133693 -0.0357864098516 -0.0193817196965
0.0991300366991 -0.0375623540261 -0.00805958090101
0.106080148947 -0.0367308366804 -0.00530284155501
0.107791720663 -0.0359291324058 -0.00335485108428
0.106517633192 -0.0359823587561 -0.00445268906025
0.106999173313 -0.0354043667941 -0.00407532158658
0.106288223091 -0.0342480743739 -0.00351599737001
0.103593729666 -0.0368429569932 -0.00144275202902
0.10355065407 -0.0360770475366 -0.00162006414814
0.100550844718 -0.0361470700194 -0.000668867699158
0.106656221425 -0.03590957926 -0.00254962620116
0.106332682099 -0.0362962234222 -0.00227093724398
0.102055983759 -0.0368524989179 -0.00104365211155
472.831536464 -8918.15382945 -451.569833436
472.835436004 -8918.15551735 -451.57235541
472.833330132 -8918.15286404 -451.571145403
472.835788786 -8918.15214181 -451.573396781
0.107059329824 -0.0349859889866 -0.00331223346401
0.106704743502 -0.0333624669639 -0.00322957666751
0.107148135238 -0.034931835833 -0.00290434430211
0.102556426636 -0.0336946699107 -0.0017777576325
0.106110583642 -0.0338927681783 -0.00307446541871
0.105157354173 -0.0330213849043 -0.00287660164649
0.104334915924 -0.0346614802195 -0.00214751951598
0.105774753009 -0.0329861554178 -0.00324424699979
0.102815176519 -0.0325514416861 -0.00207575023087
0.105343728956 -0.0329286243224 -0.00291215679658
0.102894106993 -0.031949781412 -0.00229443902955
0.101870544799 -0.0316355489974 -0.00187311264651
0.105889795861 -0.0316402438005 -0.00343186964363
0.103360495439 -0.0321014978044 -0.00244045394284
0.102485039747 -0.0319343751521 -0.00212839702792
0.101201313938 -0.0310964914096 -0.00180802917253
0.101034999399 -0.0338612728583 -0.00125090977137
0.100438817996 -0.0311346488749 -0.00157603457859
0.0996618404486 -0.0313560380924 -0.001271823968
VECTORS crack_base_displacement double
0 0 0
0 0 0
0 0 0
0 0 0
0 0 0
0 0 0
0 0 0
0 0 0
0 0 0
0 0 0
0 0 0
0 0 0
0 0 0
0 0 0
0 0 0
0 0 0
0 0 0
0 0 0
0 0 0
0 0 0
0 0 0
0 0 0
0 0 0
0 0 0
0 0 0
0 0 0
0 0 0
0 0 0
0 0 0
0 0 0
0 0 0
0 0 0
0 0 0
0 0 0
0 0 0
0 0 0
0 0 0
0 0 0
0 0 0
0 0 0
0 0 0
0 0 0
0 0 0
0 0 0
0 0 0
0 0 0
0 0 0
0 0 0
0 0 0
0 0 0
0 0 0
0 0 0
0 0 0
0 0 0
0 0 0
0 0 0
0 0 0
0 0 0
0 0 0
0 0 0
0 0 0
0 0 0
0 0 0
0 0 0
0 0 0
0 0 0
0 0 0
0 0 0
0 0 0
0 0 0
0 0 0
0 0 0
0 0 0
0 0 0
0 0 0
0 0 0
0 0 0
0 0 0
0 0 0
0 0 0
0 0 0
0 0 0
0 0 0
0 0 0
0 0 0
0 0 0
0 0 0
0 0 0
0 0 0
0 0 0
0 0 0
0 0 0
0 0 0
0 0 0
0 0 0
0 0 0
0 0 0
0 0 0
0 0 0
0 0 0
0 0 0
0 0 0
0 0 0
0 0 0
0 0 0
0 0 0
0 0 0
0 0 0
0 0 0
0 0 0
0 0 0
0 0 0
0 0 0
0 0 0
0 0 0
0 0 0
0 0 0
0 0 0
0 0 0
0 0 0
0 0 0
0 0 0
0 0 0
0 0 0
0 0 0
0 0 0
0 0 0
0 0 0
0 0 0
0 0 0
0 0 0
0 0 0
0 0 0
0 0 0
0 0 0
0 0 0
0 0 0
0 0 0
0 0 0
0 0 0
0 0 0
0 0 0
0 0 0
0 0 0
0 0 0
0 0 0
0 0 0
0 0 0
0 0 0
0 0 0
0 0 0
0 0 0
0 0 0
0 0 0
0 0 0
0 0 0
0 0 0
0 0 0
0 0 0
0 0 0
0 0 0
0 0 0
0 0 0
0 0 0
0 0 0
0 0 0
0 0 0
0 0 0
0 0 0
0 0 0
0 0 0
0 0 0
0 0 0
0 0 0
0 0 0
0 0 0
0 0 0
0 0 0
0 0 0
0 0 0
0 0 0
0 0 0
0 0 0
0 0 0
0 0 0
0 0 0
0 0 0
0 0 0
0 0 0
0 0 0
0 0 0
0 0 0
0 0 0
0 0 0
0 0 0
0 0 0
0 0 0
0 0 0
0 0 0
0 0 0
0 0 0
0 0 0
0 0 0
0 0 0
0 0 0
0 0 0
0 0 0
0 0 0
0 0 0
0 0 0
0 0 0
0 0 0
0 0 0
0 0 0
0 0 0
0 0 0
0 0 0
0 0 0
0 0 0
0 0 0
0 0 0
0 0 0
0 0 0
0 0 0
0 0 0
0 0 0
0 0 0
0 0 0
0 0 0
0 0 0
0 0 0
0 0 0
0 0 0
0 0 0
0 0 0
0 0 0
0 0 0
0 0 0
0 0 0
0 0 0
0 0 0
0 0 0
0 0 0
0 0 0
0 0 0
0 0 0
0 0 0
0 0 0
0 0 0
0 0 0
0 0 0
0 0 0
0 0 0
0 0 0
0 0 0
0 0 0
0 0 0
0 0 0
0 0 0
0 0 0
0 0 0
0 0 0
0 0 0
0 0 0
0 0 0
0 0 0
0 0 0
0 0 0
0 0 0
0 0 0
0 0 0
0 0 0
0 0 0
0 0 0
0 0 0
0 0 0
0 0 0
0 0 0
0 0 0
0 0 0
0 0 0
0 0 0
0 0 0
0 0 0
0 0 0
0 0 0
0 0 0
0 0 0
0 0 0
0 0 0
0 0 0
0 0 0
0 0 0
0 0 0
0 0 0
0 0 0
0 0 0
0 0 0
0 0 0
0 0 0
0 0 0
0 0 0
0 0 0
0 0 0
0 0 0
0 0 0
0 0 0
0 0 0
0 0 0
0 0 0
0 0 0
0 0 0
0 0 0
0 0 0
0 0 0
0 0 0
0 0 0
0 0 0
0 0 0
0 0 0
0 0 0
0 0 0
0 0 0
0 0 0
0 0 0
0 0 0
0 0 0
0 0 0
0 0 0
0 0 0
0 0 0
0 0 0
0 0 0
0 0 0
0 0 0
0 0 0
0 0 0
0 0 0
0 0 0
0 0 0
0 0 0
0 0 0
0 0 0
0 0 0
0 0 0
0 0 0
0 0 0
0 0 0
0 0 0
0 0 0
0 0 0
0 0 0
0 0 0
0 0 0
0 0 0
0 0 0
0 0 0
0 0 0
0 0 0
0 0 0
0 0 0
0 0 0
0 0 0
0 0 0
0 0 0
0 0 0
0 0 0
0 0 0
0 0 0
0 0 0
0 0 0
0 0 0
0 0 0
0 0 0
0 0 0
0 0 0
0 0 0
0 0 0
0 0 0
0 0 0
0 0 0
0 0 0
0 0 0
0 0 0
0 0 0
0 0 0
0 0 0
0 0 0
0 0 0
0 0 0
0 0 0
0 0 0
0 0 0
0 0 0
0 0 0
0 0 0
0 0 0
0 0 0
0 0 0
0 0 0
0 0 0
0 0 0
0 0 0
0 0 0
0 0 0
0 0 0
0 0 0
0 0 0
0 0 0
0 0 0
0 0 0
0 0 0
0 0 0
0 0 0
0 0 0
0 0 0
0 0 0
0 0 0
0 0 0
0 0 0
0 0 0
0 0 0
0 0 0
0 0 0
0 0 0
0 0 0
0 0 0
0 0 0
0 0 0
0 0 0
0 0 0
0 0 0
0 0 0
0 0 0
0 0 0
0 0 0
0 0 0
0 0 0
0 0 0
0 0 0
0 0 0
0 0 0
0 0 0
0 0 0
0 0 0
0 0 0
0 0 0
0 0 0
0 0 0
0 0 0
0 0 0
0 0 0
0 0 0
0 0 0
0 0 0
0 0 0
0 0 0
0 0 0
0 0 0
0 0 0
0 0 0
0 0 0
0 0 0
0 0 0
0 0 0
0 0 0
0 0 0
0 0 0
0 0 0
0 0 0
0 0 0
0 0 0
0 0 0
0 0 0
0 0 0
0 0 0
0 0 0
0 0 0
0 0 0
0 0 0
0 0 0
0 0 0
0 0 0
0 0 0
0 0 0
0 0 0
0 0 0
0 0 0
0 0 0
0 0 0
0 0 0
0 0 0
0 0 0
0 0 0
0 0 0
0 0 0
0 0 0
0 0 0
0 0 0
0 0 0
0 0 0
0 0 0
0 0 0
0 0 0
0 0 0
0 0 0
0 0 0
VECTORS crack_half_opening_displacement double
0 0 0
0 0 0
0 0 0
0 0 0
0 0 0
0 0 0
0 0 0
0 0 0
0 0 0
0 0 0
0 0 0
0 0 0
0 0 0
0 0 0
0 0 0
0 0 0
0 0 0
0 0 0
0 0 0
0 0 0
0 0 0
0 0 0
0 0 0
0 0 0
0 0 0
0 0 0
0 0 0
0 0 0
0 0 0
0 0 0
0 0 0
0 0 0
0 0 0
0 0 0
0 0 0
0 0 0
0 0 0
0 0 0
0 0 0
0 0 0
0 0 0
0 0 0
0 0 0
0 0 0
0 0 0
0 0 0
0 0 0
0 0 0
0 0 0
0 0 0
0 0 0
0 0 0
0 0 0
0 0 0
0 0 0
0 0 0
0 0 0
0 0 0
0 0 0
0 0 0
0 0 0
0 0 0
0 0 0
0 0 0
0 0 0
0 0 0
0 0 0
0 0 0
0 0 0
0 0 0
0 0 0
0 0 0
0 0 0
0 0 0
0 0 0
0 0 0
0 0 0
0 0 0
0 0 0
0 0 0
0 0 0
0 0 0
0 0 0
0 0 0
0 0 0
0 0 0
0 0 0
0 0 0
0 0 0
0 0 0
0 0 0
0 0 0
0 0 0
0 0 0
0 0 0
0 0 0
0 0 0
0 0 0
0 0 0
0 0 0
0 0 0
0 0 0
0 0 0
0 0 0
0 0 0
0 0 0
0 0 0
0 0 0
0 0 0
0 0 0
0 0 0
0 0 0
0 0 0
0 0 0
0 0 0
0 0 0
0 0 0
0 0 0
0 0 0
0 0 0
0 0 0
0 0 0
0 0 0
0 0 0
0 0 0
0 0 0
0 0 0
0 0 0
0 0 0
0 0 0
0 0 0
0 0 0
0 0 0
0 0 0
0 0 0
0 0 0
0 0 0
0 0 0
0 0 0
0 0 0
0 0 0
0 0 0
0 0 0
0 0 0
0 0 0
0 0 0
0 0 0
0 0 0
0 0 0
0 0 0
0 0 0
0 0 0
0 0 0
0 0 0
0 0 0
0 0 0
0 0 0
0 0 0
0 0 0
0 0 0
0 0 0
0 0 0
0 0 0
0 0 0
0 0 0
0 0 0
0 0 0
0 0 0
0 0 0
0 0 0
0 0 0
0 0 0
0 0 0
0 0 0
0 0 0
0 0 0
0 0 0
0 0 0
0 0 0
0 0 0
0 0 0
0 0 0
0 0 0
0 0 0
0 0 0
0 0 0
0 0 0
0 0 0
0 0 0
0 0 0
0 0 0
0 0 0
0 0 0
0 0 0
0 0 0
0 0 0
0 0 0
0 0 0
0 0 0
0 0 0
0 0 0
0 0 0
0 0 0
0 0 0
0 0 0
0 0 0
0 0 0
0 0 0
0 0 0
0 0 0
0 0 0
0 0 0
0 0 0
0 0 0
0 0 0
0 0 0
0 0 0
0 0 0
0 0 0
0 0 0
0 0 0
0 0 0
0 0 0
0 0 0
0 0 0
0 0 0
0 0 0
0 0 0
0 0 0
0 0 0
0 0 0
0 0 0
0 0 0
0 0 0
0 0 0
0 0 0
0 0 0
0 0 0
0 0 0
0 0 0
0 0 0
0 0 0
0 0 0
0 0 0
0 0 0
0 0 0
0 0 0
0 0 0
0 0 0
0 0 0
0 0 0
0 0 0
0 0 0
0 0 0
0 0 0
0 0 0
0 0 0
0 0 0
0 0 0
0 0 0
0 0 0
0 0 0
0 0 0
0 0 0
0 0 0
0 0 0
0 0 0
0 0 0
0 0 0
0 0 0
0 0 0
0 0 0
0 0 0
0 0 0
0 0 0
0 0 0
0 0 0
0 0 0
0 0 0
0 0 0
0 0 0
0 0 0
0 0 0
0 0 0
0 0 0
0 0 0
0 0 0
0 0 0
0 0 0
0 0 0
0 0 0
0 0 0
0 0 0
0 0 0
0 0 0
0 0 0
0 0 0
0 0 0
0 0 0
0 0 0
0 0 0
0 0 0
0 0 0
0 0 0
0 0 0
0 0 0
0 0 0
0 0 0
0 0 0
0 0 0
0 0 0
0 0 0
0 0 0
0 0 0
0 0 0
0 0 0
0 0 0
0 0 0
0 0 0
0 0 0
0 0 0
0 0 0
0 0 0
0 0 0
0 0 0
0 0 0
0 0 0
0 0 0
0 0 0
0 0 0
0 0 0
0 0 0
0 0 0
0 0 0
0 0 0
0 0 0
0 0 0
0 0 0
0 0 0
0 0 0
0 0 0
0 0 0
0 0 0
0 0 0
0 0 0
0 0 0
0 0 0
0 0 0
0 0 0
0 0 0
0 0 0
0 0 0
0 0 0
0 0 0
0 0 0
0 0 0
0 0 0
0 0 0
0 0 0
0 0 0
0 0 0
0 0 0
0 0 0
0 0 0
0 0 0
0 0 0
0 0 0
0 0 0
0 0 0
0 0 0
0 0 0
0 0 0
0 0 0
0 0 0
0 0 0
0 0 0
0 0 0
0 0 0
0 0 0
0 0 0
0 0 0
0 0 0
0 0 0
0 0 0
0 0 0
0 0 0
0 0 0
0 0 0
0 0 0
0 0 0
0 0 0
0 0 0
0 0 0
0 0 0
0 0 0
0 0 0
0 0 0
0 0 0
0 0 0
0 0 0
0 0 0
0 0 0
0 0 0
0 0 0
0 0 0
0 0 0
0 0 0
0 0 0
0 0 0
0 0 0
0 0 0
0 0 0
0 0 0
0 0 0
0 0 0
0 0 0
0 0 0
0 0 0
0 0 0
0 0 0
0 0 0
0 0 0
0 0 0
0 0 0
0 0 0
0 0 0
0 0 0
0 0 0
0 0 0
0 0 0
0 0 0
0 0 0
0 0 0
0 0 0
0 0 0
0 0 0
0 0 0
0 0 0
0 0 0
0 0 0
0 0 0
0 0 0
0 0 0
0 0 0
0 0 0
0 0 0
0 0 0
0 0 0
0 0 0
0 0 0
0 0 0
0 0 0
0 0 0
0 0 0
0 0 0
0 0 0
0 0 0
0 0 0
0 0 0
0 0 0
0 0 0
0 0 0
0 0 0
0 0 0
0 0 0
0 0 0
0 0 0
0 0 0
0 0 0
0 0 0
0 0 0
0 0 0
0 0 0
0 0 0
0 0 0
0 0 0
0 0 0
0 0 0
0 0 0
0 0 0
0 0 0
0 0 0
0 0 0
0 0 0
0 0 0
0 0 0
0 0 0
0 0 0
0 0 0
0 0 0
0 0 0
0 0 0
0 0 0
0 0 0
0 0 0
0 0 0
0 0 0
0 0 0
0 0 0
0 0 0
0 0 0
0 0 0
0 0 0
0 0 0
0 0 0
0 0 0
0 0 0
VECTORS surface_only_displacement double
0 0 0
0 0 0
0 0 0
0 0 0
0 0 0
0 0 0
0.000998188019223 0.00107955611176 -0.000390230879673
0.000269068219088 -2.89620293921e-05 8.15864704143e-05
0.000542569973313 7.50674040256e-05 8.4506670457e-06
0.00131330905034 0.0011776032437 -0.000524723872316
0.00159144607673 0.000990160678015 -0.00015204370197
0.000936555032426 0.00103789306654 -0.000816909949344
0 0 0
0.00119242920197 0.000732726282609 3.07020777211e-05
0.00199771754194 0.00194697854705 -0.0007091493783
0.000356209815268 -0.000124645159121 -0.000258845486104
0.000904851489991 0.00157155330498 -0.000826853707647
0.00465023282697 0.00500260162881 -0.00159751717141
0.00591949747102 0.00415558847456 -0.00183724122396
0.00750351396785 0.00367038592974 -0.000934848256592
0.00788286137733 0.00612163998993 -0.00267174099424
0.0566082416962 -0.00225108514858 -0.000641590750596
0.00883362854895 0.00447009060776 -0.00108829496843
0 0 0
0.000964295304549 5.39139875002e-05 0.000244221117745
0.00245854227341 0.000472508291127 -0.00019505351001
0.00522380546433 0.0027612319885 -0.000409573639868
0.00990937927537 0.00525324073402 -0.00192133580392
0.00927540741512 0.00265172881838 -0.000107790705555
0.00858750440447 0.00316706712024 -0.00575343052602
0.00974748180063 0.00146173226271 -0.000366472557517
0.0103781340245 0.00446408429615 -0.00147237148967
0.0443648279835 0.00165809931535 -0.0015462697951
0.0457148448586 -0.00151478253968 0.000631485622866
0.00685102613012 0.0022444174028 -0.000455874013616
0.0107631060965 0.00385131394812 -0.000993333801947
0.00998619291141 0.000793843828505 -0.000303806613003
0.0452718153122 -0.00548426885787 -5.82010550341e-05
0.0329402318798 0.000574495847693 0.00274755222559
0.0128232288624 -0.00221487556595 -0.00350649851249
0.0581914436945 -0.0065991743518 -0.00174680148079
0.052356209504 -0.00413273591761 0.00817805371311
0.0496832700432 -0.00285800881619 -0.00337867487535
0.00739165787256 -0.00118318617385 0.000882836708628
0.0339451663915 -0.0040260090114 0.000174593398279
0.0120546153174 0.000837450566124 -0.000509533552805
0.0133064098491 -0.00113084317164 0.0023400791806
0.0146818561476 -0.00216297408132 -0.000219457272449
0.0391058198147 -0.00538341305605 0.0011751885146
0.044197269376 -0.00774405374033 0.000156707184576
0.00266029619053 -0.00210249929359 0.000512792133345
0.00538504592171 -0.00243235311929 0.000536989942191
0.0148540541965 -0.00195039222621 -0.00120547768329
0.0503827455108 -0.0129185994027 -0.00136126576033
0.000466105674291 -9.1400864078e-06 -5.0732019986e-05
0.000979330257832 -0.000157546001994 -3.22146400566e-06
0.00902303841078 -0.00316081832647 -4.22790125689e-05
0.0236689813265 -0.00721441234377 0.0043116767649
0.0371308548647 -0.0106586012801 0.0020785773435
0.0523113654925 -0.000298280518392 -0.0014918178266
0.06408848895 -0.00453424184406 -0.00136550175232
0.050577470768 -0.00109377780346 -0.00178451512216
0.0606707939376 -0.00278464382843 -1.29531132048e-05
0.068677967111 -0.00869229774662 0.000117549469746
0.0767332882804 -0.0156227185806 -0.00899434381926
0.0672712750305 -0.0145178718521 -0.00164611120759
0.077408798318 -0.0207168129888 -0.00198525093497
0.05346688899 -0.0170848052631 -0.000405650676125
0.0752459838125 -0.0205023941094 -0.00594056705004
0.0972660648148 -0.0209624897242 -0.00462645981465
0.100268093975 -0.0241418570414 -0.00476904033621
0.0994768185181 -0.0235115716477 -0.00539406460283
0.0984385096418 -0.0246469168377 -0.00439784297094
0.0977608611212 -0.0252881532012 -0.00588550804477
0.100357298967 -0.0268381420961 -0.00658719928078
0.0745825100863 -0.0176406090863 -0.00902482191054
0.0979413229587 -0.023553709662 -0.00694233915387
0.0805017798318 -0.0187587148881 -0.00394154056988
0.0771520196956 -0.0185599726697 -0.00361044359328
0.101567401718 -0.0283399883617 -0.00658651016799
0.100142465673 -0.027595287732 -0.00711299349968
0.100431913433 -0.0289247850126 -0.00578611858251
0.0827245522253 -0.0239587629024 -0.0040307748487
0.0989618160918 -0.0303087353624 -0.00773398465327
0.100043092029 -0.0300838209967 -0.00474573655419
0.0995922428932 -0.0256538984343 -0.00501410072399
0.0984988790457 -0.0255028801268 -0.00388224648544
0.0999574417308 -0.0254150081808 -0.00287313295492
0.100494800744 -0.0259495243791 -0.00536133575603
0.102401045259 -0.029818937031 -0.0034799332415
0.103009236192 -0.0300888720879 -0.00435171241305
0.102563155381 -0.0317108210607 -0.00401083804707
0.104304970626 -0.0332465011565 -0.00513747207778
0.104371340317 -0.0334852502846 -0.00466246361667
0.103329221417 -0.0327088219037 -0.00254301344567
0.104107888215 -0.0356854942274 -0.00326479607775
0.103963677934 -0.0352300923296 -0.00200270425121
0.10397780199 -0.0387039925759 -0.0021373763313
0.104897722546 -0.0348791917635 -0.00452274737331
0.100030431324 -0.0254119908138 -0.0046453586158
0.100420173026 -0.0278632923315 -0.00633149438029
0.105031170734 -0.0328387178187 -0.00526581737942
0.102480978331 -0.0276288032039 -0.00609625496559
0.106176043797 -0.0348268068002 -0.00440296283615
0.105928469983 -0.0335264372445 -0.00468891796812
0.104693403596 -0.0323137622429 -0.00498132604415
0.101212537603 -0.0300933384863 -0.0060534846837
0.103207997909 -0.0310296656091 -0.00570011999582
0.106052385219 -0.0337940432438 -0.00440449891232
0.106836819109 -0.0345015096903 -0.00375776599994
0.101748057959 -0.0341497446205 -0.00448377859091
0.1 -0.05 0
0.1 -0.05 0
0.1 -0.05 0
0.100899188043 -0.0498689619216 0.000323154271396
0.103808218278 -0.0491817816274 0.000871561912827
0.103887939285 -0.045675836585 -0.000184943084416
0.100396463167 -0.0487378268674 -0.000636559561434
0.1 -0.05 0
0.100363667428 -0.049346676231 8.07450136745e-05
0.1 -0.05 0
0.1 -0.05 0
0.1 -0.05 0
0.1 -0.05 0
0.101099785082 -0.0479163482076 -3.76133887723e-05
0.1 -0.05 0
0.10241677987 -0.0450597443232 -0.000548136263165
0.102829985193 -0.0440281055743 -0.000545976476298
0.1 -0.05 0
0.104160627314 -0.0393792852052 -0.00106130603921
0.103667216849 -0.0413411950103 -0.00133195469636
0.104513150124 -0.0409023117196 -0.00159640970327
0.103732896288 -0.0431525625503 -0.00178752987512
0.104581895981 -0.0463904081259 -0.000470244642003
0.1 -0.05 0
0.1 -0.05 0
0.10499676343 -0.040200256831 -0.00177012878674
0.104246078559 -0.0428030831653 -0.000863696780941
0.137845314082 -0.0465777058884 -0.0569409161441
0.120736543301 -0.0565530165627 -0.0293514177329
0.101975312027 -0.0661502319931 0.000667563304606
0.1 -0.05 0
0.105899497457 -0.0389681337826 -0.00247694903514
0.106406596964 -0.0375127216058 -0.00314755845752
0.1 -0.05 0
0.098052419725 -0.0335061658375 -0.00070751107334
0.102454726726 -0.0414269770495 -0.000825554660673
0.101043476983 -0.044674447639 -0.00074906985096
0.106528553276 -0.0355939747424 -0.00331145736871
0.097056669311 -0.0374142384023 -0.00218605247429
0.105312537428 -0.036452162201 -0.00265675277213
0.100963867918 -0.0380836011675 -0.00110371602722
0.10356282404 -0.0374934058635 -0.00140425310014
0.106669010302 -0.0346550125622 -0.00290900521679
-0.000181856559718 0.000342085885332 -0.000597993103995
0.000249469231648 0.00057436743208 -0.000411194337389
-0.000536800335788 -0.00117751144706 0.00129461529252
0.000209158914198 0.000536064811738 -0.000521322739817
-0.000320065397339 -0.000322866731661 0.000417934976064
0.0021624688598 0.00296860497895 -0.00198803399579
-0.000601433124102 -0.00125235664464 0.00142531360516
-0.000377241875398 -0.000340304289126 0.00043432031279
0.000174154800295 -0.000699953564358 0.000141227764793
0.00428161786147 0.00187258695821 -0.00170315068097
0.00771390702181 0.00359186738957 -0.00257394559331
0.00812490483061 0.00573785878804 -0.00141865717244
0.0074296337572 0.00366101231175 -0.00147689141826
0.0082844666036 0.00449674513959 -0.00267086744588
0.0340723916266 0.0036964310675 0.00148879168497
0.0583510664174 -0.0025534234965 9.03445147452e-05
0.00142260663867 -0.000197201879406 -0.0026361612895
0.00370392868936 0.00364832062718 -0.00369228618992
0.00602298607694 0.00284685877954 -0.00166226325576
0.028376698534 -0.000793400977866 -0.00190456781984
0.00630066828026 0.00130856918391 0.00023627804794
0.0319922408875 -0.000859111526288 -0.00165301133561
0.0695454033631 -0.00910567810062 -0.00105109067936
0.0521813332351 -0.00428217603577 -0.000956079680498
0.00190650371299 -0.00230014944026 0.000546873500703
-1.72433610626e-05 -0.00364827726044 0.00151368131014
-0.000464020866784 -0.00346470606771 0.00145225857676
0.00511334389538 -0.00116721331593 0.000980198298587
0.00478941374432 -0.000660077140045 -0.00159741007598
0.0558774888468 -0.00891439124999 0.000627453852763
0.0549783091889 -0.011692617816 -0.00011994277569
0.00346742299554 -0.00367352997537 0.000255369770146
0.0464717346334 -0.0107951688788 0.0007860743557
0.000136034784359 -0.00222978785117 0.00212466681343
0.00556538002206 -0.00505289687651 0.00204880662579
0.00718661500127 -0.00679156173128 -0.000762528059108
0.0352040119403 -0.00934707782908 0.00232000357487
0.0695452915671 -0.00900367478357 -0.00199188502772
0.0513701006574 -0.00143106052209 -0.000871685227992
0.065121786538 -0.00698708374181 -0.000627094362059
0.0412341972567 0.00470879098121 0.00333928030753
0.0668934963406 -0.0112625063238 0.000354709361054
0.0700972798476 -0.0113290046746 -0.00108729494729
0.0726889718712 -0.0095387005352 -0.00109390282374
0.0568607831532 -0.00739619858946 0.00242659975034
0.0574862480409 -0.00795139027959 0.00261728136536
0.100515632784 -0.0248843003797 -0.00106448377419
0.0587711747889 -0.0125092579598 0.000968499979118
0.0575501613213 -0.0145425283398 0.00100617100783
0.0671143640682 -0.0177881102576 1.65526339563e-05
0.0711850603609 -0.00774638293032 8.36775502475e-05
0.0981886277684 -0.0233023569687 -0.00358100935504
0.0990953335479 -0.0231238556357 -0.00300285599602
0.0986269310268 -0.0238734652032 -0.00346225897115
0.0983442411944 -0.0240576376729 -0.00254088342972
0.0991593595936 -0.0243940477322 -0.00229487611952
0.084066995316 -0.0185462192521 -0.00179181668479
0.0990802615351 -0.0257040717171 -0.00287165258023
0.0796798238541 -0.0176185957292 -0.00140285507713
0.0989745184274 -0.0250670874578 -0.0027763447328
0.102517049908 -0.0268013150689 -0.00219434535939
0.0999952493193 -0.0271701578955 -0.00349816899365
0.0785942331022 -0.0220845913805 -0.00246225817339
0.102231353137 -0.0266317616604 -0.00304279657283
0.103545299883 -0.0293288328061 6.60606865599e-05
0.102748480615 -0.0321822823972 -0.00232819379708
0.10476822716 -0.0341914980916 -0.00065040542837
0.105061444222 -0.0344685870051 -0.00163645427065
0.102145697748 -0.0275815235796 -0.00151759622987
0.103872664583 -0.0299865633255 -0.00202992622132
0.105558222566 -0.0356397239687 -0.000289751289869
0.0994315798915 -0.0265409456344 -0.00227895295186
0.106375841908 -0.0346614573228 -0.0013368961154
0.0984188454281 -0.0236145123027 -0.00231658818996
0.100235505139 -0.0279293013855 -0.00194885771727
0.103045409517 -0.0292929455408 -0.00175272736613
0.106990556874 -0.0365818835709 -0.00104922002916
0.0996133210345 -0.0262597894048 -0.0029365835525
0.107824604144 -0.0360473432197 -0.00209483205795
0.105817261249 -0.0332635927708 -0.00315268791872
0.107709284431 -0.0385276567177 -0.00098454541883
0.107117252074 -0.0354548032263 -0.00337800209253
0.107537463913 -0.0355781933365 -0.00251495673021
0.104420961784 -0.0279439833336 -0.00186341507322
0.10346356565 -0.0327337095211 -0.00306577102642
0.105093127158 -0.0332946982388 -0.00350719440995
0.1 -0.05 0
0.1 -0.05 0
0.1 -0.05 0
0.1 -0.05 0
0.105492473952 -0.0502741553293 -0.000836493791424
0.103356857901 -0.0508026423691 -0.000103131512605
0.1 -0.05 0
0.1 -0.05 0
0.1 -0.05 0
0.1 -0.05 0
0.1 -0.05 0
0.1 -0.05 0
0.103798462484 -0.0464420728809 -0.00051552622344
0.105751327836 -0.0467849713666 -0.00134798352188
0.101149697208 -0.0482611592098 0.00018858426755
0.103706703616 -0.0422776379418 -0.000697387087258
0.1 -0.05 0
0.105115054711 -0.0419616898733 -0.000734941289189
0.104997043353 -0.0491981403358 -0.000846072473012
0.102104463209 -0.0465392823118 -0.000140531193525
0.101807968889 -0.048547501806 7.47342004214e-05
0.103543777163 -0.0933431625501 -0.0236574963396
0.114543610564 -0.052054682443 -0.00595260375517
0.0980423311777 -0.0550676601773 -0.00332458372099
0.106471462642 -0.0404451119987 -0.000369102046257
0.106175359036 -0.0457475626817 -0.00146245573
0.101762099743 -0.045024607208 0.000295139368006
0.1 -0.05 0
0.105009482448 -0.0438965707704 -0.000294885960151
0.10424138053 -0.041960898799 5.59007029957e-05
0.106804326683 -0.0407036056765 -0.000297816418265
0.102177505651 -0.0457264537614 -8.46548396678e-05
0.103772518544 -0.0427312246839 -0.000395927012326
0.106416120768 -0.0395558717492 -0.000803733104609
0.0996327993636 -0.0341864557264 -0.000373953501465
0.107065306373 -0.0377816579481 -0.00175569521605
0.104768530333 -0.0392479127696 -0.000974827947219
0.100096425291 -0.0394368728847 0.000106861581652
0 0 0
0.00054296503208 0.000135260287219 -0.000109184408454
0.000914774565021 0.000157522526925 0.000425579490361
0.00948865181056 -0.00499461801449 0.00412743940526
0.00450301344995 -0.00487170290738 0.000973546734123
-0.0140323885786 -0.0053551087665 0.0158989530973
0.0726647306465 -0.0168985739325 -0.00404166629992
0.00695323734802 -0.00788924878611 0.00151077803309
0.00911277528687 -0.00757720886813 0.00268223365108
0.00894065840742 -0.0108477480576 0.00382133456626
0.0115114396723 -0.00994239442611 0.00660130820308
0.0127151091564 -0.00902130548943 0.0015020763875
0.0119385725166 -0.00947247265793 0.00434541989382
0.0388405725832 -0.0164424430334 9.77232981132e-05
0.0432597160594 -0.0209446498631 0.00456681178564
0.00309472304761 -0.00482392527228 0.00182820657096
0.0131807922241 -0.0124238318462 0.00751830193121
0.0097837249773 -0.010419698066 0.00454943108167
0.038318492589 -0.0185648719024 0.00344175227
0.00133596453423 -0.00095105213777 0.000122238574935
0.0363094965816 -0.0192813293557 0.0035886767755
0.0120152219246 -0.0122297860048 0.00569376576184
0.0347825888022 -0.0214403664696 0.00875383478264
0.0489578605978 -0.0242149762154 0.00532834353921
0.0299667182527 -0.0187010928415 0.00691712518023
0.070084384914 -0.0339745469542 -0.00257488205153
0.00262317299592 -0.00208838019493 0.000579309398116
0.00753172666128 -0.0132640814053 0.0044866518374
0.0165485886198 -0.0161968963738 0.0166138332834
0.0153608709716 -0.0143112455536 0.017594737732
0.0133588011182 -0.0126071331805 0.0163055501277
0.0506564591397 -0.0276963447853 -0.0121097956957
0.0490757110287 -0.0277582656897 -0.030550194723
0.0569746646472 -0.0320526344141 0.0144679018022
0.0117778308998 -0.0179295362484 0.00228189873761
0 0 0
0.00658493231185 -0.0134776608622 0.00775143667737
0.00164021353012 -0.00050798616571 0.00102834153808
0.00228615806401 -0.00158704262611 0.00106741906305
0.0785967626984 -0.0217181725712 0.0189949240177
0.0568542365324 -0.0208386941294 -0.00921383174953
0.0644708465038 -0.0221000747517 -0.000716386755981
0.0753144902397 -0.0250832531213 0.000152024136571
0.0546038546706 -0.0233897537371 -0.00276600541748
0.0508552013082 -0.0236333541787 0.00375402796535
0.0363682065141 -0.0190136391843 0.00351801444407
0.0744825163174 -0.0298469094397 -0.00263152203632
0.0554940566167 -0.0263178717655 -0.00176918528545
0.0784873650684 -0.0370830116224 0.00144878490807
0.0690088829382 -0.0264590813762 0.00327685434213
0.0728778273812 -0.0298188933347 0.000824595326957
0.0709216186281 -0.0271025130411 0.00273998744685
-0.00139052213697 -0.0306925188009 0.0825061296146
0.0632251522657 -0.0321198441881 -0.0140204677244
0.0974647592744 -0.0326307609276 -0.00749474165645
0.0991642428362 -0.0333046897828 -0.00472771104187
0.10420798335 -0.0355904346802 -0.00484928530309
0.0836297109541 -0.0317355089929 -0.00359643291299
0.100075845322 -0.0352465745826 -0.00109489578169
0.0830714703762 -0.032078326992 -0.00375229705946
0.110249538832 -0.0402660887662 0.00491958552846
0.107918174377 -0.035815100637 0.00666444439878
0.101940347611 -0.0403077391663 5.48181023338e-05
0.119549692282 -0.0342888767597 0.0423125917061
0.103751962979 -0.0421939472025 0.00285838527916
0.0927279381732 -0.0330908559697 0.00528432148014
0.104951024295 -0.0345999013266 -0.00441492875659
0.103333739637 -0.0356347441118 -0.00435555416956
0.106270613124 -0.0342535406054 -0.00379189216282
0.106375133446 -0.0342696956943 -0.00343993338086
0.101539908643 -0.0354037372669 -0.00213331487747
0.101895910026 -0.0360687938179 -0.00537490042565
0.104116614111 -0.0382025443457 -0.0048458509314
0.105170087146 -0.035176789302 -0.0040842673014
0.0961249891364 -0.0341495119138 -0.000745150021969
0.107313187699 -0.039287888578 -0.0129144170464
0.102364246215 -0.03783762692 -0.00563247866472
0.10276987647 -0.0378214984542 -0.00448987753805
0.104755707625 -0.0361716045346 -0.00450970828923
0.105435339831 -0.0358100531325 -0.00407614477606
0.106085261636 -0.0351592357793 -0.00375856545507
0.104747495754 -0.0364120859739 -0.00496990752144
0.103525958431 -0.0386158509212 -0.00563126608498
0.105170202163 -0.036700587269 -0.00503935834252
0.104924318318 -0.0362159240951 -0.00536795949816
0.106274767745 -0.0335101465757 -0.00273476179492
0.1061957476 -0.0339446493656 -0.00328684773868
0.106147500558 -0.0357427223327 -0.00418580414438
0.105582349249 -0.035465936998 -0.00240530443273
0.104535645306 -0.0363638844111 -0.00192726681448
0.0296879681731 -0.00828009631525 -0.139498080888
0.100384239357 -0.0369309573383 -0.0382830197585
-0.0564369523941 0.0567371411024 0.0674401797284
0.104252897166 -0.0353774201842 -0.00173039546637
0.106798324559 -0.0341602928258 -0.00301746178349
0.1039574233 -0.0338653647097 -0.00176789736463
0.100847912071 -0.0337686302904 -0.00100755673675
0.101751011981 -0.0321490343937 -0.00125269477574
0.104958262686 -0.0328490583131 -0.00209811246444
0.101953365287 -0.0332951624786 -0.00123603957276
0.100164070807 -0.0334475483366 -0.00091439929775
0.105203560573 -0.0323068921432 -0.00218411456517
0.09858970629 -0.0304450316178 -0.000721231450502
0.105599904244 -0.0319013492602 -0.00233188139419
0.10184719053 -0.0308207958071 -0.00138941660892
0.100039635733 -0.0292822510974 -0.00115758781656
0.105503716926 -0.0327551242281 -0.00259606710399
0.104574874918 -0.0308137528168 -0.00214917700451
0.104148274153 -0.0321526254449 -0.00221472816848
0.105924913149 -0.0336570621738 -0.0031142140965
0.104788468333 -0.0301454886535 -0.00214076011541
0.105865176437 -0.0295885744828 -0.00250170549618
0.103796962464 -0.0319087528247 -0.00233382468832
0.101509908848 -0.030796098176 -0.00165431116896
0.101986513891 -0.0299911399834 -0.00155646429741
0.101442251207 -0.0291508434877 -0.00140959546903
0.103720816678 -0.0289784122294 -0.00187201629369
0.102144539917 -0.0286301398551 -0.00150287692378
0.100550214084 -0.0303033127434 -0.00149128385448
0.100778962199 -0.0295189909128 -0.00135653592727
0.0990208523828 -0.0272192146864 -0.00100930099549
0.0989194419353 -0.0303510888017 -0.000983046298487
0.103908906396 -0.0280126392561 -0.00192675323222
0.00607765731166 -0.00907778614879 0.00431868005022
5.70911302555e-05 -0.00360574400489 0.00314184955443
0.0047681871226 -0.00657262516068 -0.000749255553342
0.0333519161571 -0.0171975768432 -0.00134311431018
0.00364932584313 -0.0137010882074 0.00685659004018
0.0355126712224 -0.0135664824459 0.00135545424096
0.027613760218 -0.0148023858148 -0.00652527793071
-0.00607816425173 -0.0163325747844 -0.00961843994476
0.00114979483018 -0.00184778251251 0.00209677521815
-0.00116555336509 -0.0199395944952 -0.0667072730246
0.140050946761 -0.0161825226298 0.116831944486
0.124272838423 -0.0154786935877 0.129397179008
0.0763741173923 -0.0183321850035 0.0110162183703
0.00236524216821 -0.00271184989556 0.00245650695731
0.00212107802319 -0.0078135094595 0.00327288087891
0.00415230876498 -0.0185298364514 -0.0711317984035
0.0922245271084 -0.0181825320081 0.0611113726507
0.00249746810903 -0.0017666768168 0.00171437628446
-0.0508612152963 -0.0290597436436 0.0738955972356
0.000831653321069 -0.00708857888188 0.00992467313014
0.0142780080073 -0.0196306379432 0.00334767898375
0.00239164975418 -0.0179092037235 -0.0073992380836
-0.000582070175921 -0.0133973786382 0.00189417304263
0.0550428364439 -0.0218946979656 0.00893617996951
0.0644641479637 -0.022764880634 0.00625816467688
0.0107454469031 -0.0163991948104 0.00873150628665
0.00985787321965 -0.0180610038855 0.00964253815516
0.0081273396289 -0.0198582300557 0.0161795223132
0.0137259040341 -0.0166964986277 0.0117266750607
0.031722246232 -0.0221214845241 0.00616866840933
0.0659008649352 -0.0305418243924 0.000737918440365
0.0589480135745 -0.0127088810467 0.00489373970762
0.0690942884144 -0.021143739685 0.00371427005708
0.0696007224976 -0.0243145038275 0.0112997916153
0.00403606042207 -0.0171440386132 -0.00124977496878
0.0912344551027 -0.0186342714219 -0.00345588715161
0.0161950294704 -0.0199440090423 -0.0230722503717
-0.0299177880523 -0.019961269634 -0.0451036877252
0.0114351349338 -0.0230253840208 0.0643330050102
0.094085152039 -0.0278477967347 0.0229026817469
0.0857031453116 -0.022139541095 0.0438685256175
0.100723762316 -0.018959442497 -0.000464267643808
0.042262294341 -0.0205377466216 -0.00770757805111
0.0803318280064 -0.0264258084607 0.00910201522873
0.0523123585151 -0.0258691229036 0.00556544898527
0.10562129969 -0.0398848286478 -0.00154199918837
0.062494151105 -0.0214878070303 0.00443526682262
0.0733028208547 -0.0295715200956 0.00423734886444
0.0718604529326 -0.0318878242798 0.00442560388218
0.073490057613 -0.0222454923667 0.00561649628372
0.101433900637 -0.0290105811551 -0.00874374045643
0.0905426951699 -0.0303559577923 -0.0063505585541
0.0848244113267 -0.0346600140267 -0.0171835578759
0.113737738436 -0.0311325359624 -0.00843123608676
0.0929294925973 -0.03476730226 -0.070922189449
0.0874431301413 -0.03173356385 -0.0291824299546
0.0943280546425 -0.0356978029454 -0.0653983285051
0.0760941545514 -0.0355218682034 0.0118263018554
0.102516730919 -0.0408918780296 -0.0134175082868
0.0965536845446 -0.0346964701531 -0.0087659463109
0.10206350325 -0.0356720821433 -0.0104920295143
0.0999340868138 -0.0377644972049 -0.00327718292513
0.103277491503 -0.0384175407011 -0.0051497452908
0.0972695506804 -0.0309587077445 -0.00728022720977
0.107990091557 -0.03620027821 -0.00349211963783
0.10719324169 -0.036393219399 -0.00457514540932
0.108037946289 -0.0372388261163 -0.00202606817478
0.159546552653 -0.0282581629214 0.0266726064213
0.103840506619 -0.0380077151766 -0.00646749431413
0.105611413909 -0.0354780293581 -0.00454454424513
0.106433133693 -0.0357864098516 -0.0193817196965
0.0991300366991 -0.0375623540261 -0.00805958090101
0.106080148947 -0.0367308366804 -0.00530284155501
0.107791720663 -0.0359291324058 -0.00335485108428
0.106517633192 -0.0359823587561 -0.00445268906025
0.106999173313 -0.0354043667941 -0.00407532158658
0.106288223091 -0.0342480743739 -0.00351599737001
0.103593729666 -0.0368429569932 -0.00144275202902
0.10355065407 -0.0360770475366 -0.00162006414814
0.100550844718 -0.0361470700194 -0.000668867699158
0.106656221425 -0.03590957926 -0.00254962620116
0.106332682099 -0.0362962234222 -0.00227093724398
0.102055983759 -0.0368524989179 -0.00104365211155
472.831536464 -8918.15382945 -451.569833436
472.835436004 -8918.15551735 -451.57235541
472.833330132 -8918.15286404 -451.571145403
472.835788786 -8918.15214181 -451.573396781
0.107059329824 -0.0349859889866 -0.00331223346401
0.106704743502 -0.0333624669639 -0.00322957666751
0.107148135238 -0.034931835833 -0.00290434430211
0.102556426636 -0.0336946699107 -0.0017777576325
0.106110583642 -0.0338927681783 -0.00307446541871
0.105157354173 -0.0330213849043 -0.00287660164649
0.104334915924 -0.0346614802195 -0.00214751951598
0.105774753009 -0.0329861554178 -0.00324424699979
0.102815176519 -0.0325514416861 -0.00207575023087
0.105343728956 -0.0329286243224 -0.00291215679658
0.102894106993 -0.031949781412 -0.00229443902955
0.101870544799 -0.0316355489974 -0.00187311264651
0.105889795861 -0.0316402438005 -0.00343186964363
0.103360495439 -0.0321014978044 -0.00244045394284
0.102485039747 -0.0319343751521 -0.00212839702792
0.101201313938 -0.0310964914096 -0.00180802917253
0.101034999399 -0.0338612728583 -0.00125090977137
0.100438817996 -0.0311346488749 -0.00157603457859
0.0996618404486 -0.0313560380924 -0.001271823968
CELL_DATA 1000
VECTORS traction double
93047.9697005 -5796639.6643 1792379.43822
-148431.441969 7979205.24694 1704763.39605
3069207.53288 2917388.39275 -2286018.8553
0 0 0
0 0 0
0 0 0
0 0 0
0 0 0
0 0 0
0 0 0
0 0 0
0 0 0
0 0 0
0 0 0
0 0 0
0 0 0
0 0 0
-3714184.6811 -9009886.42801 -3378189.28935
0 0 0
0 0 0
0 0 0
0 0 0
0 0 0
0 0 0
0 0 0
0 0 0
0 0 0
0 0 0
0 0 0
0 0 0
0 0 0
0 0 0
0 0 0
0 0 0
0 0 0
0 0 0
0 0 0
0 0 0
0 0 0
0 0 0
0 0 0
0 0 0
0 0 0
0 0 0
0 0 0
0 0 0
0 0 0
0 0 0
0 0 0
0 0 0
0 0 0
0 0 0
0 0 0
0 0 0
-1365155.00319 -1926387.08059 5682413.70205
0 0 0
0 0 0
0 0 0
0 0 0
0 0 0
0 0 0
0 0 0
0 0 0
0 0 0
0 0 0
0 0 0
0 0 0
0 0 0
0 0 0
0 0 0
0 0 0
0 0 0
0 0 0
0 0 0
0 0 0
0 0 0
0 0 0
0 0 0
0 0 0
0 0 0
0 0 0
0 0 0
0 0 0
0 0 0
0 0 0
0 0 0
0 0 0
0 0 0
0 0 0
0 0 0
0 0 0
0 0 0
0 0 0
0 0 0
0 0 0
0 0 0
0 0 0
0 0 0
0 0 0
0 0 0
0 0 0
0 0 0
0 0 0
0 0 0
0 0 0
0 0 0
0 0 0
0 0 0
0 0 0
0 0 0
0 0 0
0 0 0
0 0 0
0 0 0
0 0 0
0 0 0
0 0 0
0 0 0
0 0 0
0 0 0
0 0 0
0 0 0
0 0 0
0 0 0
0 0 0
0 0 0
0 0 0
0 0 0
0 0 0
0 0 0
0 0 0
0 0 0
0 0 0
0 0 0
0 0 0
0 0 0
0 0 0
0 0 0
0 0 0
0 0 0
0 0 0
0 0 0
0 0 0
0 0 0
0 0 0
0 0 0
0 0 0
0 0 0
0 0 0
0 0 0
0 0 0
0 0 0
0 0 0
0 0 0
0 0 0
0 0 0
0 0 0
0 0 0
0 0 0
0 0 0
0 0 0
0 0 0
0 0 0
0 0 0
0 0 0
0 0 0
0 0 0
0 0 0
0 0 0
0 0 0
0 0 0
0 0 0
0 0 0
0 0 0
0 0 0
-7213926.72692 2153729.5872 653174.279219
0 0 0
0 0 0
0 0 0
0 0 0
0 0 0
9808693.95176 -9095964.44298 654487.795269
-23850984.0129 1847811.05592 -5343712.11952
63244083.4158 -40633025.0651 -3908410.59494
0 0 0
0 0 0
0 0 0
0 0 0
0 0 0
0 0 0
0 0 0
-83349868.029 -64096258.5915 387660.847157
-43641661.8948 -65364879.9957 5995212.60515
0 0 0
364817.712015 3713006.25571 7092800.52892
0 0 0
0 0 0
0 0 0
0 0 0
0 0 0
0 0 0
0 0 0
0 0 0
0 0 0
0 0 0
0 0 0
0 0 0
13849714.4174 -22378716.7417 8961152.16961
29378953.9177 -62145301.4683 17443391.746
0 0 0
0 0 0
0 0 0
0 0 0
0 0 0
0 0 0
0 0 0
0 0 0
0 0 0
0 0 0
0 0 0
28434986.3232 -15485587.0975 4133837.99912
-36137332.2652 -146291318.738 35343039.6058
0 0 0
0 0 0
0 0 0
0 0 0
17766767.6014 -12814813.4311 34897291.8192
0 0 0
0 0 0
0 0 0
0 0 0
-153730192.869 -17195797.3956 27918198.981
0 0 0
0 0 0
0 0 0
0 0 0
0 0 0
0 0 0
0 0 0
0 0 0
0 0 0
0 0 0
0 0 0
0 0 0
0 0 0
0 0 0
0 0 0
0 0 0
0 0 0
0 0 0
0 0 0
0 0 0
0 0 0
0 0 0
0 0 0
0 0 0
0 0 0
0 0 0
0 0 0
0 0 0
0 0 0
0 0 0
0 0 0
0 0 0
0 0 0
0 0 0
0 0 0
0 0 0
0 0 0
0 0 0
0 0 0
0 0 0
0 0 0
0 0 0
0 0 0
0 0 0
0 0 0
0 0 0
0 0 0
0 0 0
0 0 0
0 0 0
0 0 0
0 0 0
0 0 0
0 0 0
0 0 0
0 0 0
0 0 0
0 0 0
0 0 0
0 0 0
0 0 0
0 0 0
0 0 0
0 0 0
0 0 0
0 0 0
0 0 0
0 0 0
0 0 0
0 0 0
0 0 0
0 0 0
0 0 0
0 0 0
0 0 0
0 0 0
0 0 0
0 0 0
0 0 0
0 0 0
0 0 0
0 0 0
0 0 0
0 0 0
0 0 0
0 0 0
0 0 0
0 0 0
0 0 0
0 0 0
0 0 0
0 0 0
0 0 0
0 0 0
0 0 0
0 0 0
0 0 0
0 0 0
0 0 0
0 0 0
0 0 0
0 0 0
0 0 0
0 0 0
0 0 0
0 0 0
0 0 0
0 0 0
0 0 0
0 0 0
0 0 0
0 0 0
0 0 0
0 0 0
0 0 0
0 0 0
0 0 0
0 0 0
0 0 0
0 0 0
0 0 0
0 0 0
0 0 0
0 0 0
0 0 0
0 0 0
0 0 0
0 0 0
0 0 0
0 0 0
0 0 0
0 0 0
0 0 0
0 0 0
0 0 0
0 0 0
0 0 0
0 0 0
0 0 0
0 0 0
0 0 0
0 0 0
0 0 0
0 0 0
0 0 0
0 0 0
0 0 0
0 0 0
0 0 0
0 0 0
0 0 0
0 0 0
0 0 0
0 0 0
0 0 0
0 0 0
0 0 0
0 0 0
0 0 0
0 0 0
0 0 0
0 0 0
0 0 0
0 0 0
0 0 0
0 0 0
0 0 0
0 0 0
0 0 0
0 0 0
0 0 0
0 0 0
0 0 0
0 0 0
0 0 0
0 0 0
0 0 0
0 0 0
0 0 0
0 0 0
0 0 0
0 0 0
0 0 0
0 0 0
0 0 0
0 0 0
0 0 0
18494876.6299 3052346.16686 1449737.73527
4134306.38977 6474201.85251 3324124.70611
0 0 0
-15004556.0983 -19906829.8975 -3128499.38447
-45034190.1655 -3383719.27258 -903424.490767
-11947894.8125 12554865.8232 -480395.389385
49200004.7557 -27599271.2022 -3237239.84772
1824088.6184 2193528.63325 -1547019.34574
25758.2724463 4902441.03562 -3437974.69126
33780755.8788 -24976563.7758 -221068.616244
12008190.7497 -33477933.5593 -8776770.69378
-437758.192792 5925493.58362 1817158.04614
4911701.44124 -9218172.54394 -2989149.66494
0 0 0
0 0 0
0 0 0
0 0 0
0 0 0
0 0 0
-84656324.1768 -60991546.9744 -3352459.06266
-22369551.0779 16256964.5283 8054088.31987
8812845.87672 4801840.92213 -1921854.14533
-6250546.42686 -19359773.4351 1520416.05886
0 0 0
0 0 0
0 0 0
0 0 0
0 0 0
0 0 0
0 0 0
0 0 0
0 0 0
0 0 0
0 0 0
0 0 0
0 0 0
0 0 0
0 0 0
0 0 0
0 0 0
3938046.80242 -15996386.3662 -14382427.6378
0 0 0
0 0 0
0 0 0
0 0 0
0 0 0
0 0 0
0 0 0
-696238.618496 -85000984.0679 -24354676.6074
0 0 0
0 0 0
0 0 0
0 0 0
0 0 0
0 0 0
0 0 0
0 0 0
0 0 0
0 0 0
0 0 0
0 0 0
0 0 0
0 0 0
0 0 0
0 0 0
0 0 0
0 0 0
0 0 0
0 0 0
0 0 0
0 0 0
0 0 0
0 0 0
0 0 0
0 0 0
0 0 0
0 0 0
-2502083.07199 12563867.8489 5839254.82753
1017399.86819 18910096.8753 -5814958.64852
-10730789.4427 26894093.1701 -2185938.20617
0 0 0
0 0 0
0 0 0
0 0 0
0 0 0
0 0 0
0 0 0
0 0 0
0 0 0
0 0 0
0 0 0
0 0 0
0 0 0
0 0 0
0 0 0
0 0 0
0 0 0
0 0 0
0 0 0
0 0 0
0 0 0
0 0 0
0 0 0
0 0 0
0 0 0
0 0 0
-1250601.03483 2211917.15691 7156917.86179
0 0 0
0 0 0
0 0 0
0 0 0
0 0 0
0 0 0
0 0 0
0 0 0
0 0 0
0 0 0
0 0 0
0 0 0
0 0 0
0 0 0
0 0 0
0 0 0
0 0 0
0 0 0
0 0 0
0 0 0
-8620041.2891 1047057.02335 19342944.2318
0 0 0
0 0 0
0 0 0
0 0 0
0 0 0
0 0 0
0 0 0
0 0 0
0 0 0
0 0 0
0 0 0
0 0 0
0 0 0
0 0 0
0 0 0
0 0 0
0 0 0
0 0 0
0 0 0
0 0 0
0 0 0
0 0 0
0 0 0
0 0 0
0 0 0
0 0 0
0 0 0
0 0 0
0 0 0
0 0 0
0 0 0
0 0 0
0 0 0
0 0 0
0 0 0
0 0 0
0 0 0
0 0 0
0 0 0
0 0 0
0 0 0
0 0 0
0 0 0
0 0 0
0 0 0
0 0 0
0 0 0
0 0 0
0 0 0
0 0 0
0 0 0
0 0 0
0 0 0
0 0 0
0 0 0
0 0 0
0 0 0
0 0 0
0 0 0
0 0 0
0 0 0
0 0 0
0 0 0
0 0 0
0 0 0
0 0 0
0 0 0
0 0 0
0 0 0
0 0 0
0 0 0
0 0 0
0 0 0
0 0 0
0 0 0
0 0 0
0 0 0
0 0 0
0 0 0
0 0 0
0 0 0
0 0 0
0 0 0
0 0 0
0 0 0
0 0 0
0 0 0
0 0 0
0 0 0
0 0 0
0 0 0
0 0 0
0 0 0
0 0 0
0 0 0
0 0 0
0 0 0
0 0 0
0 0 0
0 0 0
0 0 0
0 0 0
0 0 0
0 0 0
0 0 0
0 0 0
0 0 0
0 0 0
0 0 0
0 0 0
0 0 0
0 0 0
0 0 0
0 0 0
0 0 0
0 0 0
0 0 0
0 0 0
0 0 0
0 0 0
0 0 0
0 0 0
0 0 0
0 0 0
0 0 0
0 0 0
0 0 0
0 0 0
0 0 0
0 0 0
0 0 0
0 0 0
0 0 0
0 0 0
0 0 0
0 0 0
0 0 0
0 0 0
0 0 0
0 0 0
0 0 0
0 0 0
0 0 0
0 0 0
0 0 0
0 0 0
0 0 0
0 0 0
0 0 0
0 0 0
0 0 0
0 0 0
0 0 0
0 0 0
0 0 0
0 0 0
0 0 0
0 0 0
0 0 0
0 0 0
0 0 0
0 0 0
0 0 0
0 0 0
0 0 0
0 0 0
0 0 0
0 0 0
0 0 0
0 0 0
0 0 0
0 0 0
0 0 0
0 0 0
0 0 0
0 0 0
0 0 0
0 0 0
0 0 0
0 0 0
0 0 0
0 0 0
0 0 0
0 0 0
0 0 0
0 0 0
0 0 0
0 0 0
0 0 0
0 0 0
0 0 0
0 0 0
0 0 0
0 0 0
0 0 0
0 0 0
0 0 0
0 0 0
0 0 0
0 0 0
0 0 0
0 0 0
0 0 0
0 0 0
0 0 0
0 0 0
0 0 0
0 0 0
0 0 0
0 0 0
0 0 0
0 0 0
0 0 0
0 0 0
0 0 0
0 0 0
0 0 0
0 0 0
0 0 0
0 0 0
0 0 0
0 0 0
0 0 0
0 0 0
0 0 0
0 0 0
0 0 0
0 0 0
0 0 0
0 0 0
0 0 0
0 0 0
0 0 0
0 0 0
0 0 0
0 0 0
0 0 0
0 0 0
0 0 0
0 0 0
0 0 0
0 0 0
0 0 0
0 0 0
0 0 0
0 0 0
0 0 0
0 0 0
0 0 0
0 0 0
0 0 0
0 0 0
0 0 0
0 0 0
0 0 0
0 0 0
0 0 0
0 0 0
0 0 0
0 0 0
0 0 0
0 0 0
0 0 0
0 0 0
0 0 0
0 0 0
0 0 0
0 0 0
0 0 0
0 0 0
0 0 0
0 0 0
0 0 0
0 0 0
0 0 0
0 0 0
0 0 0
0 0 0
0 0 0
0 0 0
0 0 0
0 0 0
0 0 0
0 0 0
0 0 0
0 0 0
0 0 0
0 0 0
0 0 0
0 0 0
0 0 0
0 0 0
0 0 0
0 0 0
0 0 0
0 0 0
0 0 0
0 0 0
0 0 0
0 0 0
0 0 0
0 0 0
0 0 0
0 0 0
0 0 0
0 0 0
0 0 0
0 0 0
0 0 0
0 0 0
0 0 0
0 0 0
0 0 0
0 0 0
0 0 0
0 0 0
0 0 0
0 0 0
0 0 0
0 0 0
0 0 0
0 0 0
0 0 0
0 0 0
0 0 0
0 0 0
0 0 0
0 0 0
0 0 0
0 0 0
0 0 0
0 0 0
0 0 0
0 0 0
0 0 0
0 0 0
0 0 0
0 0 0
0 0 0
0 0 0
0 0 0
0 0 0
0 0 0
0 0 0
0 0 0
0 0 0
0 0 0
0 0 0
0 0 0
0 0 0
0 0 0
0 0 0
0 0 0
0 0 0
0 0 0
0 0 0
0 0 0
0 0 0
0 0 0
0 0 0
0 0 0
0 0 0
0 0 0
0 0 0
0 0 0
0 0 0
0 0 0
0 0 0
0 0 0
0 0 0
0 0 0
0 0 0
0 0 0
0 0 0
0 0 0
0 0 0
0 0 0
0 0 0
0 0 0
0 0 0
0 0 0
0 0 0
0 0 0
0 0 0
0 0 0
0 0 0
0 0 0
0 0 0
0 0 0
0 0 0
0 0 0
0 0 0
0 0 0
0 0 0
0 0 0
0 0 0
0 0 0
0 0 0
0 0 0
0 0 0
0 0 0
0 0 0
0 0 0
0 0 0
0 0 0
0 0 0
0 0 0
0 0 0
0 0 0
0 0 0
0 0 0
0 0 0
0 0 0
0 0 0
0 0 0
0 0 0
0 0 0
0 0 0
0 0 0
0 0 0
0 0 0
0 0 0
0 0 0
0 0 0
0 0 0
0 0 0
0 0 0
0 0 0
0 0 0
0 0 0
0 0 0
0 0 0
0 0 0
0 0 0
0 0 0
0 0 0
0 0 0
0 0 0
0 0 0
0 0 0
0 0 0
0 0 0
0 0 0
0 0 0
0 0 0
0 0 0
0 0 0
0 0 0
0 0 0
0 0 0
0 0 0
0 0 0
0 0 0
SCALARS region double
LOOKUP_TABLE default
1
1
1
3
3
3
3
3
3
3
3
3
3
3
3
3
3
1
3
3
3
3
3
3
3
3
3
3
3
3
3
3
3
3
3
3
3
3
3
3
3
3
3
3
3
3
3
3
3
3
3
3
3
3
1
3
3
3
3
3
3
3
3
3
3
3
3
3
3
3
3
3
3
3
3
3
3
3
3
3
3
3
3
3
3
3
3
3
3
3
3
3
3
3
3
3
3
3
3
3
3
3
3
3
3
3
3
3
3
3
3
3
3
3
3
3
3
3
3
3
3
3
3
3
3
3
3
3
3
3
3
3
3
3
3
3
3
3
3
3
3
3
3
3
3
3
3
3
3
3
3
3
3
3
3
3
3
3
3
3
3
3
3
3
3
3
3
3
3
3
3
3
3
3
3
2
3
3
3
3
3
2
2
2
3
3
3
3
3
3
3
2
2
3
2
3
3
3
3
3
3
3
3
3
3
3
3
2
2
3
3
3
3
3
3
3
3
3
3
3
2
2
3
3
3
3
2
3
3
3
3
2
3
3
3
3
3
3
3
3
3
3
3
3
3
3
3
3
3
3
3
3
3
3
3
3
3
3
3
3
3
3
3
3
3
3
3
3
3
3
3
3
3
3
3
3
3
3
3
3
3
3
3
3
3
3
3
3
3
3
3
3
3
3
3
3
3
3
3
3
3
3
3
3
3
3
3
3
3
3
3
3
3
3
3
3
3
3
3
3
3
3
3
3
3
3
3
3
3
3
3
3
3
3
3
3
3
3
3
3
3
3
3
3
3
3
3
3
3
3
3
3
3
3
3
3
3
3
3
3
3
3
3
3
3
3
3
3
3
3
3
3
3
3
3
3
3
3
3
3
3
3
3
3
3
3
3
3
3
3
3
3
3
3
3
3
3
3
3
3
3
3
3
3
3
3
3
3
3
3
3
3
3
3
3
3
3
3
3
2
2
3
2
2
2
2
2
2
2
2
2
2
3
3
3
3
3
3
2
2
2
2
3
3
3
3
3
3
3
3
3
3
3
3
3
3
3
3
3
2
3
3
3
3
3
3
3
2
3
3
3
3
3
3
3
3
3
3
3
3
3
3
3
3
3
3
3
3
3
3
3
3
3
3
3
3
1
1
1
3
3
3
3
3
3
3
3
3
3
3
3
3
3
3
3
3
3
3
3
3
3
3
3
3
3
1
3
3
3
3
3
3
3
3
3
3
3
3
3
3
3
3
3
3
3
3
1
3
3
3
3
3
3
3
3
3
3
3
3
3
3
3
3
3
3
3
3
3
3
3
3
3
3
3
3
3
3
3
3
3
3
3
3
3
3
3
3
3
3
3
3
3
3
3
3
3
3
3
3
3
3
3
3
3
3
3
3
3
3
3
3
3
3
3
3
3
3
3
3
3
3
3
3
3
3
3
3
3
3
3
3
3
3
3
3
3
3
3
3
3
3
3
3
3
3
3
3
3
3
3
3
3
3
3
3
3
3
3
3
3
3
3
3
3
3
3
3
3
3
3
3
3
3
3
3
3
3
3
3
3
3
3
3
3
3
3
3
3
3
3
3
3
3
3
3
3
3
3
3
3
3
3
3
3
3
3
3
3
3
3
3
3
3
3
3
3
3
3
3
3
3
3
3
3
3
3
3
3
3
3
3
3
3
3
3
3
3
3
3
3
3
3
3
3
3
3
3
3
3
3
3
3
3
3
3
3
3
3
3
3
3
3
3
3
3
3
3
3
3
3
3
3
3
3
3
3
3
3
3
3
3
3
3
3
3
3
3
3
3
3
3
3
3
3
3
3
3
3
3
3
3
3
3
3
3
3
3
3
3
3
3
3
3
3
3
3
3
3
3
3
3
3
3
3
3
3
3
3
3
3
3
3
3
3
3
3
3
3
3
3
3
3
3
3
3
3
3
3
3
3
3
3
3
3
3
3
3
3
3
3
3
3
3
3
3
3
3
3
3
3
3
3
3
3
3
3
3
3
3
3
3
3
3
3
3
3
3
3
3
3
3
3
3
3
3
3
3
3
3
3
3
3
3
3
3
3
3
3
3
3
3
3
3
3
3
3
3
3
3
3
3
3
3
3
3
3
3
3
3
3
3
3
3
3
3
3
3
3
3
3
3
3
3
3
3
3
3
3
3
3
3
3
3
3
3
3
3
3
3
3
3
3
3
3
3
3
3
3
3
3
3
3
3
3
3
3
3
3
3
3
3
3
3
3
3
3
3
3
3
3
3
3
3
3
3
3
3
3
3
3
SCALARS max_principal_stress double
LOOKUP_TABLE default
-2.45116560903e-07
1.98941698054e-06
1.98941698054e-06
-94666.4123081
16435748.9865
1060957.57612
4575116.1521
-5704932.18645
-1029147.22064
1866232.22231
-4722732.70966
32696955.2754
1763632.74974
30783691.8126
3182266.23988
91359990.7047
-15404491.5138
1.00895073693e-06
198571.789013
-4038979.37796
8673584.32934
54552384.2346
6570280.91375
2868940.37331
79253493.8407
540885658.433
59773430.454
-36754941.9073
89335307.0186
468505677.677
55997683.1405
397977796.711
-2298219.21856
9364440.35745
15649014.8036
4701639.98212
54971778.8408
61226442.164
-85734192.6773
-2119469.7464
-127626420.286
-59113944.07
4304915.88038
-175979397.702
559566758.592
739260365.911
-2925189.66121
29723735.8399
-60455082.7434
126525235.321
67546188.7153
-24243424.8997
55450453.5811
-78520464.9662
3.02085547535e-07
11492867.9554
40134333.7028
-7185116.18887
-3080753.97076
145397636.609
81250486.8034
2259799.25614
2555808.94735
-497961.374262
5583509.58937
-56225495.3325
128526123.346
-117817624.022
1091806914.67
-128296421.001
21850254.5356
-50982754.924
16835014.3382
61777666.6564
573761547.221
91958296.3643
308478507.832
7110339192.11
226573333.919
-67287783.0865
3175285647.82
46480178.6102
-438049841.558
24835057.2049
-46901484.9425
372102485.845
151540664.173
3040735382.56
30954348.4391
-76931404.4014
36990308.6894
-72585968.1889
134194571.356
-29738473.2166
-187411209.649
28128087.4306
513168214.303
534468198.82
-53711361.284
-25480198.3792
-35243345.9029
9810952971.33
24025630.106
-79401754.1897
72233704.0504
10481891.7611
294308407.847
-38983464.4019
26702694.4854
-50337621.7887
11486031.2042
-17399995.092
537830607.886
137227965.532
3029368364.69
-11130588.5885
372822482.506
-24363470.7644
21942345.5748
19824007.2362
-8937514.12558
-14629682.2552
10007724.7347
27729268.0902
27528057.8534
-24866477.3446
-42087210.5682
-8157997.01873
-66634376.8458
91471703.8811
18734705.1027
56724511.8206
-62127008.7009
-8342806.04131
-91536875.624
62004549.3839
-35223167.8141
23481786.1383
26012213.3499
-10433667.1619
912313.58411
-81266352.5905
-1367132357.59
-163769366.906
74409345.2693
25655305.8539
24801410.8213
31053041.3643
-12406422.0732
-3791924.67564
-1923150.78196
5269550.0579
-1016615.73633
18756536.4713
13422043.6215
151280923.86
-26830104.6216
4110601.37952
-11128887.165
-44870645.8948
22592125.8275
-10432293.1147
39183822.2686
-6310553.7503
-105385264.729
553384919.129
-258639.897378
-6586730.42674
60473.1506355
-5918938.12803
-436870922.9
101659405.694
86924579.1133
2965803.08693
6752557.61262
1.98941698054e-06
2182932.89276
3546309.97745
-5949970.87666
-4708330.68081
-3154228.99099
0
6.05370442157e-06
2.8102201432e-06
-2157750.63961
23320048.9645
26367105.4994
-53158156.1739
-13905006.063
-51637700.9866
-15606912.9017
-1.68733143301e-06
3.30045326501e-06
-61647788.4156
2.78173564988e-06
-3647290.0954
-19980741.6312
-7471604.7204
16835317.4445
15591059.0334
7819457.07225
-14713241.1321
-23439053.6272
-6251502.07568
-15371793.8217
-15049331.0175
-36383994.7429
2.01790147386e-06
-4.90233121807e-07
-24802148.0677
-32216748.3779
-47864458.6132
-44282556.329
1633788208.21
1958795156.27
2340412157.21
-23149809.6121
1601674222.12
-21385390.4305
-35588141.6323
-9.80466243613e-07
1.40968258237e-05
-11222147.618
-24611927.9785
-2130316.83349
-23514147.1762
5.53498680645e-06
-4422331.74553
-27772215.5582
-68256202.7609
49913882.1184
7.82648933453e-06
-21315567.0282
-9379833.98353
29233129.245
-26772517.585
15928776.5978
1369531.94334
-6539770.26868
31904101.4184
-2204840.09753
103982348.104
-3615280.66717
-1734869.87207
-12766984.6069
-18593592.1059
-5694076.07656
-4593533.15162
-2319647.62591
11955497.861
7359228.74774
11980221.4037
-2054838.10678
6065324.23577
7237945.53268
8336762.44741
8664300.12926
7656920.60947
1373205.31306
27610572.1026
19389944.0531
10061770.4839
9237245.84697
533621.22958
13879708.9795
-3024938.02068
6905724.87934
75732445.5879
61244476.155
71590602.8979
79267029.862
99864191.5793
51310439.3843
14526351.2548
55603121.9945
48396249.773
-24366831.3854
-50693726.7627
403006506.062
69904738.655
-41291812.6167
162527245.971
-55413103.8154
939667.328879
8946456.77879
17171100.3357
-9572759.05382
7591726.78821
1208906.55539
3100424.10631
45683136.3827
57511312.7285
103520505.898
124798879.027
-5499610.44017
10996347.4742
-37666901.3886
-42991791.7431
-3698412.98869
5039750.26639
139462995.667
24948841.3356
140820042.644
-6400261.37049
-32124762.106
-259219011.897
-79311163.2856
117111723.601
-82975807.7138
19003501.0942
289194823.347
-23475249.7096
15878600.1386
-12199215.6431
6859081683.01
-27661361.6119
-4222663.2548
-217190390.038
873739992.196
-4020629.06209
228797846.337
-66335323.8674
62386838.8978
-17046965.9435
470619408.703
128726247.364
63342270.8787
-292377299.918
1435730993.85
259090597.504
-207420437.837
287786713.365
13466564.4758
282892617.384
1415620208.02
-50212515.7061
55387933.2795
114393310.991
324710069.625
-219689516.958
291286070.224
131111715.429
35344060.2506
-58894260.7923
730458443.104
143793486.484
130231603.021
4872895.23559
777536521.682
-74700315.2886
-191704932.979
234872612.761
12877949.4231
175981657.521
43642954.463
-186151125.594
7558373.9868
23585178.2285
24107012.8401
25956619.3694
-20418882.5315
49904246.1577
164202.821714
2881321.59533
-38686556.9587
1384569.98484
-11963181.9944
-16084346.873
-20571202.9254
-66949816.0479
7550110.84971
-117541148.504
-120719808.074
27612688.9798
19187535.0688
17603996.0905
-30608666.8955
21232156.7881
-24410362.6358
-30865388.6009
-38178850.0989
57208915.4788
27881195.0827
-9972474.6077
27977052.7112
-23208039.8169
76743409.135
39317797.38
73505439.2845
16127426.4461
20600881.5517
-7005316.19652
-14321678.5345
74817806.595
-14421990.0834
36670660.8198
525159567.44
18780205.9273
93687123.3918
-29814720.2228
201479.143816
-1695626.84961
3162808.81033
13260324.9297
3040061.80619
225205616.39
17092429.6301
15591505.9724
-16926394.0502
-1321362.42153
417079331.738
-91644879.1319
429886998.742
68293764.1665
733806551.807
-78841914.0595
-140046.070478
27492820.2178
8693305.41714
-3.67674841355e-06
5.18717615123e-07
12819733.8354
2.78173564988e-06
-3.69099066021e-06
2.29150252808e-06
1.26261264583e-05
5.04475368465e-06
6.32730547579e-06
-3.43163185265e-06
1.00895073693e-06
2.31998702139e-06
-7.3534968271e-07
9371963.4452
403915.816782
-7470506.03432
1450388.96649
-56623665.0381
465844.020258
-3.46011634596e-06
7.30777171941e-06
1.05512559978e-05
3.0553367041e-06
-17160955.3315
-23953040.1252
-19742722.798
-2667750.12111
-19619759.1186
4843529.02615
-31509319.7858
3473844.57508
-2587292.25078
-38567315.2003
1160780350.91
986598259.848
990508206.182
1060167575.73
-59593711.0868
-5545997.49579
-80985900.1707
4.55452056284e-06
-19357766.4661
-30465906.2145
3896752.05812
5219728.77435
-26813329.0909
2577456.18842
29304583.8751
1.2597641965e-05
-10357705.8366
-28270104.2092
26448321.4851
14751275.9286
137949803.389
-1421515.48808
-23897037.3626
-24892409.8556
-12635401.9524
2062878.68434
3396899.95555
14175099.2109
209810.014459
35137681.6009
-53419064.9522
-4546612.17823
2334538.14156
-6219562.87508
-4604139.03783
-8946575.42307
8290226.35065
48053571.8808
12036599.5156
-5242062.66404
-7922853.31276
-19919829.3506
3829465.44678
14382330.9471
-1.23982505117e-06
0
1.00895073693e-06
180473.917776
14555384.3117
23648349.1186
-5357722.64959
53463442.5336
-3147169.52034
392761413.949
-130239303.735
-95159237.7313
21027889.7663
14931503.4651
-93903838.5891
20284200.7813
-79259073.0903
133226667.347
1029752286.81
185885050.248
839333667.024
-77677136.7106
-253082068.462
5949362.0024
2599445.30264
2031634.72411
-29039551.704
145851441.12
93017553.5483
-7.3534968271e-07
8843695.83519
19987587.2286
33601497.4802
-50909494.1543
801274145.591
3451261490.66
623635534.885
-32234698.5998
7757516.26374
10661226.3772
-54430759.5013
42381948.9316
-93467169.2822
-5973131.09263
138027856.226
230114251.566
331684147.99
35978021.4396
-203026348.512
-210570090.595
1.49918385874e-06
-332792.607663
56480838.0333
-38911719.0557
196201893.858
-11498685.9551
53969463.8641
1191877.38954
6130603.52603
5218632.48292
10828556.2564
5214376286.18
-362479619.561
5976209623.71
3955775852.05
3688226168.49
-671915271.412
160034194.162
6253312366.79
927067019.585
1235705176.93
1152510801.69
-739660189.332
603218825.208
95453095.0038
-129536155.099
56895811.0717
-26443238.2438
177182263.558
549051721.378
3800644371.84
247645846.602
-145839123.265
1202965712.49
7419237829.18
21109408834.7
8566393989.37
-233981199.581
-454981366.231
5771051345.96
-1179989139.37
-32932955.7351
-67497944.4747
-89863382.1436
1856463015.43
1384421872.25
-81451901.1765
-87105878.5815
-1045796023.67
-426516246.642
558121626.451
673136347.902
1251925665.58
-424631848.844
935901185.632
-9472415.77313
-602237018.931
46021338277.8
1377899433.79
8949200445.87
-161412983.635
529608509.761
-379768957.213
119633075.76
255552886.649
-46100286.4595
6346818.08525
318951853.362
2018322.37665
-6809991.18071
27415499.1815
12325930.7095
4194077.07338
6235840.29198
-3588287.08944
3523093.20723
295120611.968
82257433.5135
-24039180.1966
186493105.399
121215035.174
111440820.372
49200855.6231
701925511.222
-487224238.861
1643756.12145
719463108.408
204098833.423
33932378.5756
65472020.8619
31444577.9788
43114632.1536
-80840612.3021
15313547.0619
79651439041.7
406025165.003
194187407.719
717893064.112
259257683.698
141297575.573
1077506020.7
266265871.312
1163364499.8
47904353.557
644443054.397
16974119.9742
3522554.52309
15418284.1694
4663740.59921
7587710.49053
16487169.3887
11996666.6884
-219985550.261
1333200312.17
-16682313.6229
53188810.261
3858477.05703
32058248.7787
-98246.8713941
5488015.47738
-4031527.58594
-4404628.15333
14381002.7611
25695092.7422
11556953.3696
-5605351.05292
9653813761.54
10890240550.3
12916788556.5
-11698214.6762
-11927723.843
-12383805.8886
12807418114.5
-4605954.35137
-10430576.1517
-7766066.14482
-11944111.137
-8267011.256
3765556.59846
1764673.20919
1280324.82456
2440469.15822
-12549999.3734
2263098.41771
-822068.414241
-5030109.27991
12340583.4206
-6067848.21485
-1126921.63964
4249951.6903
20359425.0019
3171690.49224
-1986387.95578
511488.198082
4993499.11583
-3710710.40166
983780.540235
29350003.7565
25490126.8222
22241148.4686
17648660.7393
-1515976.66377
-4017804.80427
24503905.3799
17891231.43
21505750.4152
21238264.511
-118696.520999
19364564.1346
-1390569.37924
332224.24893
7070503.99693
7235158.50506
-177387.765664
-2263013.79209
-490652.87649
554613.583767
2768345.76784
4582895.41335
1065092.14344
6828593.37584
515858.271823
529779.302865
1625233.12737
-3046497.71555
209963.956319
10135079.7177
347982.209414
561748.781461
959821.85923
814272.026699
263464.489587
-2223247.83766
917984.155049
-3056316.54331
7135425.08407
1529203.95695
1352071.00654
-1458338.84176
7928779.87518
49366559.0882
166963065.373
97874320.4305
30382072.4645
-54391162.9029
19918585.5376
1611953500.81
-259393560.096
6271524.38361
-18983615.9181
3253162514.07
11687933180.9
14627602473
-120783049.056
2799855392.9
16106112.301
-19887656.1026
-6638864.80217
35177346851.5
6323812149.49
12726321.5322
7066102781.59
1634485995.89
1037928325.71
5770244432.42
-653246848.394
5150276459.64
3279567.00377
8808386.99658
234619104.23
448715413.152
300604775.25
-61200055.3431
185465237.566
593507290.98
322579266.598
884182622.771
-8361493.0963
2305928.10834
-41255379.3716
36883888.1804
224988495.773
334371962.345
6236137.45457
5075649.40743
24629215.4351
-11443279.6181
24106102.3069
18461480.432
5047146.24278
-8419879.41232
-16394293.1023
-878790181.482
214136416.223
1704361861.72
1195373022.76
1703067101.94
741965579.017
14035176482.7
5348040680.72
-336039742.269
26857324709.6
-268767630.828
11838913819.6
3151677678.27
54978556163.8
20625703348.3
36121721369.6
1876539829.12
1697739695.28
-1550259448.06
7384595914.17
3491646738.07
941003281.58
7272024681.01
292351695.069
350160033.036
101821606334
-99757932.9938
1289383550.48
94253829.7309
115119994.456
3605877445.04
774840044.118
-1154740356.56
104917077.028
-24099253.6932
-122216996.127
710875402.691
1609000894.92
577141942.344
47012151.6364
-253304048.25
1859973093.03
-682648497.243
1315947852.97
2066853483.59
-447994550.083
5389795643.11
24927543000.9
22305934829.4
2474669140.74
-1535803572.72
7310656684.84
-395943422.432
1730356515.79
6050003747.82
43371305001.9
4060876259.75
7812313708.9
-346189125.188
-1085418186.31
-1936340246.69
3792205876.58
-73776440.9251
4930776957.23
1446029348.49
291195795.06
676572044.665
480006386.466
98698330.2617
13232309.3199
-663583012.026
9499627.17593
-7822782.28381
6101620.24132
-3598538.4503
89912736.2003
7011459669.72
-228023488.955
44459712.0434
207647406.597
4430377769.83
-5265506.91575
-4122955.03272
31325407101.7
9323942620.28
23857343686.3
-93904084.845
937223500.329
26381387.7476
9343316.25739
162965.688336
6682015206.87
671827849.211
8240632092.48
-971334408.59
2699715022.56
752402946.096
6383686585.31
389030390.837
11352437.8487
10006072.4089
6190104.29321
4980130.45939
441835952548
-204514549.926
264387002.178
-104078153.937
570358387.911
147974731.941
6331641592.92
251873072.794
188523132.058
11726027.2229
52930969.3005
4262532.73596
4525332.65717
711157000.409
498045697.055
615893358.958
-9222978.12578
64314545.2194
12473649.7854
7321083.14783
11479158.6545
-2413818.65807
17531058.6646
3563597.01348
2803346.01265
26899538.7948
-7006247.47022
189677.211937
13794372.0658
-3001205.95739
-9656705.59541
3073492.91201
3999829.85112
1294423.08714
9991291.27794
4512150.02949
-12954727.1031
6624661.61774
-4888820.61985
5798002.84267
6570499.00899
3988789.97207
21950131.4708
17097758.3591
14475633.4343
24065163.507
3671011.76606
17061846.5287
1626654.65073
-1652040.58743
2205896.53386
8978564.02259
23250915.1571
22112223.3496
23205478.3267
17922292.479
-1249852.4973
11437411.5048
-630463.222651
-371722.93885
27318976.0704
21138364.7329
19851851.6213
21704107.5672
18518641.5226
11526843.421
11181856.3876
19946434.9907
1053340.62028
11687750.9644
2432680.35815
-5228793.34659
-905300.954821
1969691.44365
1105724.17112
6390500.98417
5978035.33228
3642062.97167
927349.671851
1321429.59169
496450.695156
-1821535.80824
211137.853679
313245.978856
305802.230768
1050279.70333
904810.390252
3265019.0618
3492592.78057
-538873.641728
1592571.57847
-3475729.14523
1147576.09321
-1777184.98104
-1572981.68585
-578124.103784
373337.94118
-736428.753352
454535.395259
VECTORS max_principal_stress_normal double
1 0 0
1 0 0
1 0 0
-0.0295832625489 0.836309094295 0.547459523048
-0.0994727894363 0.977441016652 -0.186317533068
0.934027705644 -0.0078552316846 0.357114184014
0.311931234937 0.939485699696 -0.141652831731
-0.57134487946 0.819397692882 -0.0463944998233
0.515928728938 0.823249515694 -0.236807477849
-0.0298991777679 0.92836569523 -0.370463459857
0.562826227366 0.814237466106 0.142281364128
0.891601176175 0.430413207944 -0.140683378805
0.830035955944 0.556855175744 0.0308646251703
-0.567437684887 0.82076335603 -0.0660453417663
0.572723043381 0.814607690964 -0.0916658355331
-0.11375294193 0.972144453243 -0.204927865921
0.692215909506 0.000798306247158 0.721690028568
0 1 0
0.815680800899 0.578500776253 -0.00129727383989
-0.390206863568 0.813781384124 -0.43069532442
0.949662128507 0.298122197281 0.0962548552913
-0.249793666443 0.866823651545 -0.431532016573
0.0558172802854 -0.502727848614 0.862640795145
0.397587873927 0.893532140469 -0.208624534645
-0.149227804826 0.977685536431 -0.147858223037
-0.293215461784 0.459620844184 0.838315795248
0.807603911353 0.505410891991 0.303867985522
0.0302894767353 0.419256552654 0.907362381111
0.0923265883633 0.93918244493 -0.330775053799
-0.2274995522 0.838595895092 -0.494975634233
-0.410989179594 0.713586850222 0.567346191885
0.697793266638 0.624788926008 -0.350318933219
0.989644939327 0.0428513206093 -0.136991453695
0.175098170902 0.955585748386 0.237058026712
0.837561205954 0.441523313724 0.321789356131
0.758919164033 0.650965955387 -0.0168827542241
0.392227585545 0.895211732811 -0.211550170352
0.256087686075 0.885129694391 -0.388541530791
0.730857544772 0.46842240388 -0.496414847474
0.761255958212 0.3127064611 -0.568070449216
0.993531514773 0.00164885752083 -0.113544750748
0.986436574196 0.0575389005133 -0.153727551258
0.910592042251 0.406691929165 -0.0736465025727
0.057669537982 -0.900834617397 0.430315252447
0.881045648691 0.02103175879 -0.472563466685
-0.271843629995 -0.0281177196941 0.961930576846
0.682945040743 0.681457750538 0.263061600308
0.403972515456 0.809504768699 -0.426037834246
-0.579805404808 -0.0102689305721 0.814690273429
-0.483395070302 0.867333808434 0.118580229194
0.933237230986 0.234229608975 0.272405508354
0.995792353646 0.00308863345819 0.0915862913525
0.963932976182 0.25532824818 -0.0751046144384
0.256286004392 -0.868919011837 0.423435042033
-0.707106781187 0.707106781187 0
0.874160393327 0.202321782467 0.441485563838
-0.340248775632 -0.566962215744 0.750189720404
0.735016735057 0.420968197175 -0.531541321209
0.822784071202 0.565256572397 -0.0592568944434
0.772733020135 0.570373874097 -0.278491154869
0.840383304977 0.391101216354 0.375227583316
0.780532280266 0.102843958682 0.616597502123
0.757604005221 -0.0297154837385 0.652037699294
0.785862370169 0.49558339907 -0.369888401709
0.744726902469 0.655027310796 -0.127753915207
0.436471704473 0.828715979538 0.350317393878
0.850288723689 0.300544927512 -0.432066931059
0.871318177312 0.00359987605864 0.490705283014
0.743170251792 0.0415462576076 -0.667811264753
0.216313159672 0.0298595143277 0.975867320058
-0.104158168782 -0.595398932508 0.796649977747
0.449593859721 -0.0102329243637 0.893174478229
0.245757292834 0.010790592813 0.969271332561
0.404121611046 0.279601429281 0.870924086376
0.352129041322 -0.511145370835 0.784050730585
0.246502599328 -0.748736476861 -0.61532930756
-0.396829864086 0.702417155114 -0.590877482369
0.832355273696 0.00840062774916 -0.554178786858
0.0591893200666 0.156931430978 0.985834240814
0.999964660215 0.000425734199837 -0.00839625336119
0.080423821146 0.049828769815 0.995514491452
-0.33809512609 0.0996783688715 0.935818309552
0.049273411141 -0.969327718507 0.240781862043
0.76189063554 -0.127103170388 -0.635112150375
-0.28047525743 -0.0152031282311 0.959740847761
0.887041598183 0.040903510513 0.459874010921
0.739570123484 0.0241393820296 -0.672646506484
0.849213929362 -0.0983323598617 -0.518812537611
0.555961309961 0.44757838964 -0.700414596473
0.410693292381 -0.0153602428813 0.911644164426
0.022819843975 0.295335249721 0.955121115353
0.459758157921 -0.00407496267681 0.888034814016
0.403679405677 0.347902757568 0.846171737125
-0.602943993011 0.768926059475 0.21262938732
0.944973539661 0.000130824060768 0.327146744178
0.858852743586 0.311853343198 -0.406348935241
0.560823735783 -0.245195961649 0.790794333423
0.884876554631 -0.00853071876476 -0.465747474392
0.0583805776196 -0.000335991361865 0.998294343
0.815862202902 0.00569252087731 0.578218350696
-0.506961199736 0.725857566695 -0.464888303611
0.913610453122 -0.00884935192721 -0.406494315971
0.987843835558 -0.0295879231805 -0.152607704103
-0.528061210064 0.829906973429 -0.180016037842
0.85300128194 0.499622313497 0.150885244027
-0.369605858654 -0.149083410852 0.917150830484
0.265496691892 0.234989995757 0.935035404939
0.494946915077 0.722685209159 -0.482445478493
-0.524011675612 -0.0383226159672 0.850848482944
-0.347354810508 0.00903217089293 0.93769027696
-0.511602321819 -0.23929261312 0.825228519633
0.688063179187 0.427923511774 0.586046525046
0.839457158826 0.040600812539 -0.541907051547
0.797521793033 0.00323286730621 -0.603281475106
0.701368417404 0.0522703864422 0.710879842005
0.645118372007 0.209706309519 -0.734741825301
0.85842945133 -0.0262289074347 -0.512260599211
-0.153909199814 -0.0236749187037 0.987801324375
-0.132114313967 0.0698042191582 0.988773573187
-0.298020080325 -0.0572154200859 0.952843338345
-0.135563182265 0.0787688805097 0.987632566837
-0.096400018412 0.000506663670622 0.995342543922
-0.339043053701 0.0326676591353 0.940203505516
-0.653425534481 0.218341853402 0.724818533111
-0.204048423014 0.108499810448 0.972929613178
-0.233897327623 0.0841930858445 0.96860908752
-0.092149174639 0.032434590066 0.995216824104
-0.311864945569 -0.00437465706317 0.95011637082
0.867582887874 -0.000846455235408 -0.49729188228
-0.190097365838 -0.0449102871687 0.980737506985
0.751694868744 -0.306498281245 -0.583963721388
0.619368176609 -0.436494546089 0.65257610517
0.860065770153 -0.342674620886 -0.377969542704
-0.403938855701 0.238117635921 0.883251601934
0.748921601176 -0.161931002153 -0.642568895788
-0.304611600134 -0.302156339187 0.903279203654
-0.570330505351 0.183647468626 0.800622708855
-0.568364336679 0.0724995995592 0.819576591207
0.410358711901 0.628647708264 -0.660611675996
-0.583539642568 0.118141437852 0.803445135783
-0.29848229037 -0.0164336764182 0.954273680144
0.580486709832 -0.0207522807566 0.814005234966
0.215029587568 -0.0286308579209 0.976187763929
0.996598811168 0.00844270075249 -0.0819727417069
0.140467724264 -0.0448403328614 0.989069341851
-0.0140973146536 0.182206067104 0.983159302875
0.991171794439 -0.0067700059291 0.132410879191
0.696444391243 0.114126168768 -0.708477541993
0.722826684031 0.0627668309583 -0.688172877832
0.916964207286 0.100882250197 -0.386004422451
0.898690001131 0.0640150030431 -0.433887498383
-0.684826433014 -0.0215358005834 0.728387922703
0.823044704941 0.0218945713924 -0.567554439162
-0.531761262992 -0.417907001325 0.736602808456
0.896799527242 0.221170739078 -0.383189394574
0.422113777243 0.048630256765 0.905237569475
0.733442828823 0.0037569325609 0.679740761104
0.773356116813 0.302161123147 -0.55733201258
-0.699897669215 0.363286193615 0.614952351126
-0.575367038669 0.281276113467 0.768008150221
0.254802559548 -0.36013402959 0.897429181818
0.814803653324 -0.146225500646 -0.560992967417
-0.566881322732 0.780673689351 -0.263047822063
0.793870584164 -0.434139255402 -0.425784690328
-0.20524936665 -0.000721134546773 0.978709444858
0.935574054489 0.0899601248279 0.341479669245
0.868471857308 0.127634849668 -0.479026072582
0.93242732662 -0.0813004241634 -0.352093058158
0.981304079184 0.0690615610016 -0.179646333024
0.975670635329 0.21809512722 -0.0223903291637
0.965695120886 0.0100142650144 0.259485352173
-0.529174015704 -0.1357753845 0.837579790866
-0.285989925074 0.0144734838191 0.958123312013
0.956304128246 -0.183172413973 0.227882164857
0.96709547592 0.252245141427 -0.0331470825375
1 0 0
0.149555994273 0.854926325835 0.496723244847
0.600102944658 -0.537848711828 -0.592110816484
0.764256637752 -0.473172116993 -0.438200797982
0.269595118449 -0.206155706132 0.940647807066
-0.621105153534 0.307564890904 0.720855204696
0.707106781187 -0.707106781187 0
0.19419157581 0.928353612112 -0.316937222117
0.132733151025 0.991151810077 0
0.444345499845 0.395074188685 0.804035734406
0.0969319169369 0.982161975107 -0.161127459275
0.58805759568 0.804934230636 0.0791779547154
-0.321240925654 0.00697685578634 0.946971800619
0.615374053091 -0.279192623882 -0.737133809801
0.280942837555 0.0571476069974 0.958021541011
0.0720910320589 -0.379784887313 0.922261526068
-0.544773372121 -0.450801478511 0.707106781187
-0.427052471154 0.854104942309 0.296868547349
-0.0144023505151 0.145005851353 0.989325970231
0 1 0
-0.13766094597 0.0951461349984 0.985898918221
-0.0474365085003 0.122150775495 0.99137730744
0.749308745601 -0.0912936004738 -0.655897768161
0.890392463159 0.382116896864 -0.247361958838
0.741934664819 -0.235498987761 -0.627752482993
0.953568388271 -0.0250893158071 -0.300129730488
0.800744253796 -0.13465534053 -0.583675063095
-0.15529849576 0.109239254851 0.981809127282
-0.334490855465 0.658211266914 0.674443322836
0.583456019488 0.325334841697 0.744134607515
0.946876631331 -0.159326316409 0.279355991415
0.742997069531 0.649777420346 -0.160451421551
1 0 0
-0.00138106002955 0.707105432502 -0.707106781187
-0.377866120378 0.116935489537 0.918446125996
-0.338661692305 0.0316930256592 0.940374292657
-0.381280228467 0.301870304389 0.87378470272
-0.3245121126 0.166997002731 0.931023034009
0.0512554404106 0.988883811712 0.139576813124
0.483462048687 -0.180173259798 -0.856622462893
-0.453800235864 0.352029446484 0.818621166803
0.918948835864 0.277908081945 -0.279821612912
-0.0439955050359 0.949816616106 0.309697903294
0.848734680437 0.126625780511 -0.513434858511
0.862690421163 0.0157358610624 0.505487507175
0.771851786103 -0.63580250101 0
0 0.991841825852 -0.127474673916
0.739484610118 -0.0487815124826 -0.671403660578
-0.624137315526 0.245815572299 0.741638264779
0.937576720691 0.261666896338 -0.229085853294
0.917095823801 0.102859319608 -0.385169067211
0 1 0
-0.162405517719 -0.000199104558903 0.986724079047
0.998574445187 0.0277015262861 -0.0456256820336
0.975530335252 0.149867197865 0.160873826361
0.967439069035 0.0605481828359 0.245755092034
-0.0657498048902 -0.3868870693 0.919780059995
0.894413478207 0.00963988569203 -0.447137118348
0.941525132407 0.247160047935 -0.229002916467
0.550476282621 0.810466553445 0.20029934603
-0.629985828296 0.000656131089818 0.776606351788
0.201146445393 0.0025730744002 0.979557801661
0.782737792536 0.288931826836 -0.551216788185
0.889288824282 0.373003724376 0.264638637786
0.306695116844 0.564313762894 0.766477711556
0.919775056029 0.107589307361 -0.377410104857
-0.53651759658 -0.426123095012 0.728400972307
0.864751864126 0.477791904361 0.154658040907
0.995402771555 0.0951428389714 -0.0110073872058
0.679604854506 0.71014713564 0.183924678806
0.949641853925 0.269958015829 -0.159069226953
0.883593351972 0.309816053167 -0.351107962812
0.959540888621 0.281509582978 0.00579980659725
0.997084281076 -0.0748241655768 0.0149760033467
0.710683760586 0.55640417175 -0.430514796608
-0.071524863834 0.861743452613 -0.502277229956
-0.0860543759634 0.926542878264 -0.36621433494
-0.57306117543 -0.0483427277384 0.818085490575
-0.518963247313 0.85384272379 -0.040370174259
0.219329301147 0.917070710748 -0.33298043358
-0.256324873193 0.878609000042 -0.402919079255
-0.140565765908 0.884316804285 -0.445224724285
0.781367112908 0.246310398834 -0.573407902189
0.363709735578 -0.0136524721901 0.931412281564
-0.426540354805 0.877247598868 -0.220227100975
0.242085349613 0.934052587398 -0.262565129972
-0.555122597163 0.777964201974 -0.294296793333
0.290862852212 -0.0755335095542 0.953778533066
-0.707243326484 0.634894922438 -0.310990859363
-0.319620033711 0.873400563318 -0.367443179345
0.0907511810985 -0.182455642497 0.979016936345
0.354414548994 0.793339814312 -0.494977036325
0.170904568431 0.831738006264 -0.528207835444
-0.0401378960226 0.998529028333 0.0364517335591
0.810475141627 0.314054387912 -0.494469297569
0.221447819948 0.875380877734 -0.429731523092
0.615737923505 -0.573855704213 -0.539959665438
0.282688637504 -0.43453169661 0.855142876289
0.78742001036 0.31621378168 0.529130013853
-0.406930929976 -0.299381355825 0.863005227107
-0.299565644877 0.953214387902 -0.0405309154422
-0.214450598738 -0.4926959818 0.843363272984
-0.651315898449 0.00254829745841 0.758802416053
0.734331131068 0.654174252047 0.181145902253
0.0993072581016 0.946249199141 -0.307815726714
0.986348041568 0.00139846396848 0.164668106184
0.987547289191 0.105968040952 0.116280376282
0.986238103446 0.00137490568955 0.165325475792
0.399241108669 -0.252254355914 0.881461443894
-0.681818213022 0.71631896125 0.148361282498
-0.0757841066899 0.912107038034 -0.402886485678
0.966853709477 -0.251377152268 -0.044759711661
0.654894517142 -0.256336093102 0.710918405157
0.730752282161 -0.678464019854 0.0754166817133
-0.399124074506 0.809754949411 -0.43011265391
0.550901077283 0.725781250153 0.412006771759
0.346587627594 0.682215063797 0.643785385922
0.299719308825 -0.375971778602 0.87682013983
0.45257103886 0.135856885722 0.88131853571
0.866611061366 -0.230526036269 0.442541540332
-0.466163760671 0.883049210618 0.0539948133061
0.415099112234 0.442446970889 0.794942390978
0.515491540052 0.00238578756231 0.85689134676
0.937506735665 -0.16123862852 0.308355679785
0.887663130598 -0.447970339235 -0.10666181014
0.508650469018 0.120781170429 0.852459154
0.980312358264 0.197283242918 0.00818549314714
0.468114007785 0.00928341757826 0.883619315019
0.654743972492 0.455619752982 0.603092837943
-0.57459077429 0.783582759928 -0.236312294316
0.12983598346 0.896659970994 -0.423253486478
-0.310225362306 -0.00175863429502 0.95066141806
-0.665872448364 0.154324702825 0.72992997514
-0.0122242880751 0.866467799679 -0.499083278522
-0.2715591409 -0.395628610845 0.877344650223
0.877714042967 -0.382765148122 0.288286142855
0.992947502908 -0.00326573443578 0.118509879111
0.773331691827 0.294087559345 0.561667697001
0.983440178124 0.151466327773 0.0995156651143
0.890336397919 -0.331431528794 0.312176617098
0.0639053786135 0.776841937082 -0.626444496643
-0.0891654188843 -0.225848774438 0.970073120522
-0.279068093772 0.958666468677 0.0554941517072
0.915018618402 0.220271209222 -0.337966747426
-0.69659687592 -0.0705853754276 0.713982140697
0.665622014517 0.192233638141 0.721105791238
0.0634982594115 0.91840060605 -0.390523107969
0.583397866463 0.294383909291 0.756957755332
0.857433729892 -0.260733609867 0.44365006878
0.879728869906 0.118143523674 -0.460564027327
0.69599951574 -0.691399118365 0.193783211897
0.462447546013 0.62565497083 0.628250049472
0.756276332606 -0.00553681807379 -0.654228899076
0.533474248268 0.365530967409 0.762753130639
0.125201650424 0.719208057715 -0.683421038927
0.862437237227 -0.00309561219201 0.506154550536
0.441586113529 0.297074920086 0.846609825241
-0.225784382365 0.121830055276 0.966529280628
0.4315517442 0.307359445138 0.84811158674
0.791526186053 0.331163030694 0.513631525408
-0.281477949689 -0.00956546899592 0.959520018364
0.66015269051 -0.647771099997 0.380251268533
0.76164625394 -0.467224198312 0.448995024885
-0.116288848261 0.606207987294 0.786758399963
0.944522713897 0.000487534195059 -0.328445741702
0.98741398993 -0.0636909331875 -0.144765595085
0.960866646036 0.276993027316 0.00318611881307
0.613036638716 -0.0032434198511 0.790047821223
0.986107870268 0.000342729867139 0.166105841955
0.58856423432 0.126803835569 0.798444067774
0.409168970053 0.0168381314443 0.912303256201
0.175830418587 0.0442829675537 0.983423958771
0.544445837265 -0.517320623453 -0.660271234293
0.885990868748 0.116166791986 -0.448915868437
0.655113462933 -0.00102371534833 0.755529815885
-0.150214159837 0.873714856286 -0.462664085584
0.614847159734 0.63139815859 0.472545590918
0.235948073466 0.606635489814 0.759158671904
0.998341538789 -0.0430701277579 0.0381986390194
-0.596335122786 0.783295218591 -0.17559334231
-0.526517179974 -0.00163043766226 0.850162926071
-0.0632705216568 0.0146298966391 0.997889175817
0.0702091475071 0.0377239174304 0.996818730592
0.308917735967 -0.0140528711055 0.950984936378
0.510690961411 0.0714159633627 0.85679315013
0.835546609722 -0.291431890556 0.465756713477
0.789655854348 0.0878008576581 0.607235243615
0.517329884898 0.0788268354021 0.852147945026
0.433391386017 0.141197012918 0.890076013647
0.242013265593 -0.0116903760324 0.970202512049
0.287009851062 0.0896645873197 0.953721975826
0.282364175399 0.0364648919622 0.95861399119
0.45277322925 0.133098888873 0.881635462453
0.423472594518 0.443060904292 -0.79016960001
0.814793233115 0.118834854179 0.567441860195
0.950667841098 -0.304640459289 -0.0585221878115
0.390652435434 0.2298334349 0.891385027299
0.317164580889 0.133291172639 0.93895691697
0.277293212792 0.097052902988 0.955870916056
0.517417366303 0.0669785917328 0.853107928282
0.469596978598 -0.0485033978168 0.88154755861
0.38165102676 0.0377844861663 0.923533879388
0.713299001585 0.444356864309 0.541988479101
-0.0846178779469 -0.360253199745 0.929008851844
0.999535640596 -0.00837175320786 0.0292987529749
-0.107457264537 -0.00786355589367 0.99417860608
-0.0171853963966 -0.160908077952 0.98681976703
0.932139347345 0.30897538738 0.188813259927
0.991338224564 0.131239446681 -0.00497314324301
0.798012816417 0.0566732659923 0.599969737367
0.610010372825 -0.148021197379 0.778445290417
0.715035135908 0.224496798942 0.662061886595
0.897585452339 0.234507558185 0.373291522678
0.104471706465 0.0276429167436 0.994143617242
0.671318831908 0.0465597902108 0.739704814005
0.708804026973 0.132233873557 0.692900464736
0.919716690793 0.107102879476 0.377690590147
0.903022695047 0.380176608132 -0.200039393268
0.000946239527241 -0.121239115384 0.992622879815
0.955701924484 0.170215683143 0.2401259102
0.953849264859 0.284530059681 -0.0959907551106
0.681187588775 0.220436643794 0.698134052294
0.37160922795 0.418305131952 0.828810833837
0.0147412909605 0.07907243219 0.996759873193
0.0124481403329 -0.278611067293 0.96032333981
0.995538104985 0.0881498824192 0.0336671910255
0.954350491453 0.1784561045 0.23951734432
0.805179780653 0.0215916867146 0.592637595746
0.905731733284 0.170233105546 0.388163260882
0.92345385194 -0.0895278331652 0.373118949434
0.573636658599 -0.285482640873 0.767750379792
0.857273187752 0.350282295123 0.377339363549
0.935650477526 0.0485887110407 0.349567334093
0.93277608109 0.113702850976 0.342053276882
0.971760820031 0.198910228264 -0.126947350286
0.561179805306 0.418752528747 0.713949259951
0.0856788914501 0.889958652908 0.447920443465
0.800257162667 0.0563659440916 0.597001971477
0.541948561767 0.430831768838 0.721578646689
0.899023870122 -0.410672649987 0.152000182578
0.986557522418 -0.10713737012 -0.123393026075
0.993790862933 0.107526693991 0.0285959932675
0.265289972786 0.716650506685 0.645006419819
0.969830283532 0.222448549203 -0.0997289531771
-0.225734228837 0.185920700315 0.956283196091
1 0 0
0.0677851676886 -0.492742271309 0.867531109014
0.999513026049 -0.0312043387777 0
0 0 1
0 0.929929353268 -0.367738219295
0.0834378551539 0.966736752499 0.241781255879
0 0.936102744016 0.351726673209
-0.466162523527 0.756290435681 0.459039517423
0 0 1
1 0 0
0 1 0
0.00354515279339 -0.0232300069171 0.999723861209
-0.112275273172 -0.49794298992 0.859911066229
0.0973188862368 -0.583207998199 0.806472234623
0.371933227736 0.602689326686 -0.70599663569
0.148448110033 0.898631965999 -0.412824113047
-0.565907999572 0.123078937636 0.815229851717
0.235937466054 -0.503869503566 0.830932629934
-0.0602269703291 0.304464372239 0.95061777707
-0.556647348966 0.772306941732 0.306081225563
0.146158063209 0.989261249903 0
0.707106781187 -0.707106781187 0
-0.0330672341735 0.0271082409316 0.999085432432
0.0497185873685 0.0667132450389 0.996532691389
0.0792579496069 0.0732148720606 0.994161837898
0.841521475414 0.0809859007987 0.534118797917
0.147684713982 0.422102139703 -0.894437817243
-0.544584003703 0.822891401994 0.162104914901
0.217860326228 -0.076501343213 0.972977092609
0.736618219754 0.18123990729 -0.651571710813
0.655944398045 -0.651571288465 0.381040421375
0.360547067365 -0.0156482574877 0.932609749173
0.869095481517 0.492859100215 0.0419875141207
0.962907494117 0.0306357030067 -0.268086947603
0.155686964373 0.913812100015 0.375112003262
0.567368415844 -0.680839684422 -0.463195860106
0.688135971583 -0.092425900104 -0.719670992609
0.924098680291 -0.314159118428 0.217590618806
0.400990287707 -0.239877271968 0.884118591343
0 1 0
0.460606022857 0.00243443655249 0.887601354904
0.295097658866 -0.32041655926 0.900139211613
0.607792761689 0.0378350803019 0.793193838565
0.949094093758 -0.232643416807 -0.212361582707
0.251339754923 -0.452006759005 0.855872781089
0.820869278403 0.105181400374 -0.561347041312
0.849244764551 0.395216349942 0.350124787213
0 1 0
0.620278841731 -0.00588131332865 0.784359336436
0.849324440726 0.325088191159 0.415891406925
0.752613491781 0.658302061164 0.0145371337343
0.713889208146 0.306978939516 -0.629385517141
0.496613454344 0.362999413928 0.78842025751
0.0889383340636 -7.5790778146e-05 0.996037131331
0.964043341181 0.0424223036351 -0.26233715802
0.916251127779 0.151178073322 0.370983909341
0.843559390734 -0.0264279457083 0.536385232822
0.910760978205 0.299903074457 0.283853107275
0.164902442347 0.883915344927 -0.437608098087
0.971436020557 0.227622151482 -0.0670836352561
0.817765243813 0.0691710000158 -0.571380240093
0.990797260333 -0.0334650762432 -0.131152116221
0.97613789417 -0.0761317153688 -0.203368565615
0.897479377465 0.0314423294485 0.439934252978
0.989628329103 -0.0491124315518 -0.134995330675
0.951808196998 0.0932741207614 0.292166210442
0.978220299405 0.128085216897 0.163337757561
0.967894570878 0.210367205178 -0.137570849568
0.994977609969 -0.099677182069 0.00916597161081
0.932103687752 0.26672325251 0.245033511687
0.821831599379 0.000124637971255 0.569730468492
0.999440230948 0.000351949438111 -0.0334529653905
0.966513901887 0.254853161776 0.0300123873125
-0.127163499991 -0.47649343682 0.869933014052
0.0238272474414 -0.0456951172089 0.998671226452
0.71909690547 0.694079730134 0.0339553936901
0 1 0
1 0 0
1 0 0
0.96105568834 0.0233577159442 0.275365903871
0.146340921479 0.94353082166 0.297210234141
-0.0302284413093 0.617962819432 0.785625989346
0.820712523733 0.234692388085 0.520913079471
0.911756359615 -0.408105488351 0.0463707998591
-0.706466471746 0.697330901683 0.120974120608
0.394233068078 0.358895057116 0.846034648233
-0.458030230904 -3.31852498442e-05 0.888936615556
-0.621197770964 0.0157506904517 0.783495529725
0.86968878807 0.202000169255 0.450374670164
0.939976328728 0.246835063653 0.235620357317
0.990976894994 0.120154547146 -0.0593942622476
0.945673037997 0.303863291993 0.115627008028
-0.34605993081 -0.0522693482723 0.936755271946
-0.0701513532556 0.0499153801973 0.99628672703
0.985953869038 -0.0973173386736 -0.13573615481
0.731789249508 0.0804741427845 0.676763183579
0.0927888361575 -0.0808648455449 0.992396648845
-0.373412469571 -0.0141249800649 0.927557875557
0.345677862424 0.897651189018 0.273366344461
0.59596866078 0.760478720917 0.257863278503
0.604207544734 0.114137162835 0.788610138755
0.938791404758 0.318868267501 0.130359987474
0.714083489176 0.425206308477 0.556133406403
0.934355331051 0.0939513596387 0.343734283072
0.963349749987 0.0975864556002 0.249868251051
0 0 1
0.657560838287 -0.00468859577386 0.753386860133
0.417493285445 0.901381676942 0.114936630723
0.474461897441 0.313316568624 0.822629099718
0.986420861274 -0.013606832067 0.16367265674
0.893862327998 0.16707688456 0.416047417048
0.9998839904 0.00261600384396 0.0150054078899
0.0877377441679 -0.150294049935 0.984740466723
0.992924454537 -0.00870485033944 0.118428261672
0.763025252192 0.121488100633 0.634848884319
0.660319920855 0.017872947997 0.750771709544
0.556431489994 0.136097292052 0.819671595238
0.368202224806 0.414244834032 0.832363105337
0.651060077918 0.757826586622 -0.0426572332697
-0.106295922948 0.537540972653 0.836511135302
-0.187766068421 0.387629175445 0.902489626474
0.876486659251 0.387961833038 0.285055700279
0.959786951977 -0.0517590106023 0.275916675168
-0.0982365957628 -0.205146451716 0.97378873715
0.921657098487 -0.000262708791922 0.388005314128
-0.581854001804 -0.00132715439241 0.813292173358
1 0 0
0.800990630697 0.598255891755 0.0224476617094
-0.293422716508 0.333982555846 0.895744808429
-0.0248478960869 -0.408248554584 0.912532574619
-0.565999393958 0.525149556156 0.635501872309
-0.129896287476 0.240472250896 0.961925179548
0.165189356486 0.980618527713 0.105355491601
0.38611485435 0.279337814551 0.879139183868
0.616166527386 0.784825025898 0.0662456734718
0.386008928574 -0.0256004557211 0.922139752818
0.0607786221924 -0.586123133912 0.807939125787
0.931405439805 -0.0134634689166 0.363734300977
0.76979443151 -0.00386692780356 -0.638280173658
0.678188518611 -0.0150999289779 0.734732825842
0.939778812741 0.0033863798151 -0.341766463474
0.993444311585 0.028168740848 0.110792246203
0.535066713618 -0.000949174990791 0.844809274952
0.0021249316979 0.0474632961761 0.998870722457
0.348630089142 -0.0695651320991 0.934675212756
0.528957223544 -0.180016712886 0.829336022817
-0.655120000906 -0.00455611390256 0.755511102657
0.983029564863 -0.183436064451 0.00202110442763
0.310640802921 0.929031198916 0.201005778529
0.980679750115 -0.195424060747 0.00875580930864
0.99971040983 -0.00314528462478 -0.0238579894942
0.151963741142 0.0187411119832 0.988208374838
0.838446669415 -0.162608932192 0.520159127304
0.650672506475 -0.659629163482 -0.376184337795
-0.279530328437 -0.307205139597 0.909663562912
-0.044000297228 -0.0928393123759 0.994708417538
0.305440252142 -0.152224677527 0.939964839727
0.8753793512 0.219889937482 0.430533862649
-0.140257509547 0.959466495823 -0.24444196532
0.703503045241 -0.346352892339 0.620582902846
-0.633524124776 0.0167874266637 0.773540797652
-0.456216652552 -0.023069385875 0.889569654029
0.325259708388 0.0054764200301 0.945608867832
-0.499838782649 0.00343554189049 0.86611164893
0.73857541004 0.00422971870818 -0.674157602615
0.619774050979 -0.0164797006789 0.784607255383
-0.358829413785 0.00545861307101 0.933387194762
-0.592306111203 -0.725480755148 0.350501276091
-0.187896764525 0.00547892997626 0.982173501581
0.533962785607 -0.0129594866464 0.845408655795
0.408055400995 -0.04004327945 0.912078574186
0.517430765525 -0.213461268247 0.828673451878
0.97885217247 0.00912794031995 -0.204365127055
0.798810769384 0.0019341331637 -0.601579266469
0.320752547958 0.92598260315 0.199183386962
0.0941587140811 -0.000671993877741 0.995556972246
0.946375227303 -0.295739846781 0.130045654187
-0.0186301104579 0.549440084485 0.835325393212
0.703173210261 -0.346271129009 0.621002207393
0.728553942492 0.0185075586202 -0.684738361094
0.689544048087 -0.33646265008 -0.641343816411
0.949130348985 0.314842126947 0.00510056224884
0.909119980857 0.00308120540971 -0.416522948443
-0.682868756929 0.00224351494801 0.730537629045
0.465819622084 0.0228037361516 0.884585817939
-0.641725133883 -0.00901826636483 0.766881688017
0.0708912211696 0.973229258271 0.218630385826
0.929955163377 -0.00225961595623 0.367666000936
0.0963928532975 -0.00020866388906 0.995343344928
0.404957336165 0.033584621769 0.913718572136
0.864273811329 0.0431773264352 0.501165139982
-0.598532272388 -0.0120577009751 0.80100794675
0.753222959184 0.596879712807 -0.276387015248
0.528044817608 0.131670245796 0.838946730711
0.834499442924 0.538022202416 0.118923460541
0.889453418225 0.309872029385 0.335934431419
0.0695321033989 0.933047252109 -0.352970412258
0.450630436204 0.753388016752 0.478893209578
0.933223247324 0.257794143061 -0.250272951908
0.892675144266 0.2678059298 0.362506649283
0.98136455069 0.189541864591 0.0315832268061
0.668872645375 0.624724497061 0.402900343807
0.911839978408 -0.0177183290828 -0.410163277965
0.320133480543 0.286343214845 0.90306263235
0.383317020234 0.750242447645 0.538706164575
0.782938440032 -0.443509898745 -0.436241181957
0.405825029147 0.171392955256 0.8977363202
0.105053604077 0.792936223099 -0.600179878343
0.678634022078 0.700386301536 -0.221167114867
0.960347767094 -0.228710668178 0.159447786123
0.219496573467 0.9755623379 -0.00996890706106
0.742468498203 0.652838165503 -0.150142794828
-0.0116116542184 0.515418648853 0.856859840289
-0.277746123329 -0.516449739306 0.81002268965
0.813412198662 -0.522846801312 0.254934927825
0.890672208085 -0.377781875975 0.252950334907
0.646206058374 0.597543042052 -0.474721015983
0.585661013542 0.252381387014 0.77026282054
0.0689423641401 -0.108869218157 0.991662464634
0.698489101839 0.597279851568 -0.394169701427
0.840894534723 0.00450979004525 -0.541180231778
0.833924212593 -0.265378073791 0.483885198784
0.677339011793 -0.431508002062 -0.595829427991
0.230941641063 -0.131672792386 0.964016718822
-0.325161729993 0.884942400885 0.333386857066
-0.0368430189546 0.909103319142 0.414938244898
0.790599737575 -0.0699148408369 0.608328833755
0.663978985868 0.637754670014 -0.390385562234
0.187705773459 0.732898788983 -0.653931118481
0.357038180279 -0.520594914292 0.775567323342
-0.105399381531 -0.678073183729 0.72739791578
0.67535606627 0.713140543174 0.187948794714
-0.22906906373 0.80288346995 0.550368510839
-0.144836002652 0.832347043633 0.534996197455
0.952409970677 0.232141417533 -0.197549006632
0.473211117701 0.851502629121 0.225863920722
0.539264433753 0.822124265665 -0.182498115863
-0.284471264559 0.923224908343 0.258325121222
-0.489220163428 -0.00211156282303 0.87215776841
0.79184527 -0.567207481542 -0.226399516921
0.814267954163 -0.554850880505 -0.170611251757
-0.389298804095 0.893148880148 0.225236584549
-0.535399150505 0.828274007688 -0.165257126404
0.961260393898 0.240597425508 -0.134504029538
0.848703688183 0.468334496884 0.245692589819
0.816916646542 0.531816264277 -0.22320092664
0.750104991206 0.206809356575 -0.628149975882
0.383809360212 0.919788701017 0.0817258863199
0.0492628603665 0.996763545095 -0.0635264177967
0.0996252418642 0.994649816894 0.0273231209204
-0.339493520376 0.940448471 0.0173442502329
0.979344558618 -0.200701906336 0.0245556571716
0.722115284824 -0.437976007622 -0.535468516508
0.367671566407 -0.121820092909 0.921942234752
0.658523055504 -0.316458450017 0.682789451282
0.690214938461 0.553577445674 0.465999302968
0.992687226251 -0.116252814629 -0.0325169790831
0.979447426806 -0.200150305682 0.0249518187424
0.864980818156 -0.440001470967 0.241261040718
0.965716946145 0.255965548254 -0.0432714459527
-0.0764087111539 0.00423357375912 0.997067593352
0.381492216608 0.0153964227713 0.924243820014
0.757771917357 0.546944241504 0.35585631644
-0.189273762379 0.376485557337 0.906881507139
0.0574845109277 0.996557264465 0.0597423605653
0.584989707858 0.79260742147 -0.171931722291
0.994650294596 -0.0415836384543 0.094559994042
-0.00942195158617 0.938431818056 0.345335995357
-0.256501753868 0.280348789711 0.924992652063
0.166449944939 0.2380293996 0.956888928119
0.826318388726 -0.528963503041 -0.19337924631
0.769380614968 0.403696082722 -0.495058523921
0.271837518952 0.920687822679 0.280068378188
0.416313925804 0.619474027321 -0.665533353527
0.846724849693 0.279786682606 0.452522310111
-0.115421926757 0.829325407253 0.546714868747
0.0880561283485 0.974899908323 -0.204490310312
0.975795681986 -0.118376650006 -0.183874293338
0.288162970285 0.095197452214 0.952837629215
0.533768528928 -0.386903142438 0.751928930084
-0.462103525553 0.802533263896 0.377360162195
0.834607497935 0.00567625886101 -0.550815853508
0.600980292325 0.798599875164 0.0325718839556
0.752185346387 0.00227695962111 0.658947661151
0.0160160447696 0.999675249726 -0.0198212359603
0.0268105746749 0.999520221013 0.0155087353109
0.598156612746 0.736592204008 -0.31565897995
-0.0806692674709 0.990736279816 -0.109243275046
0.192526204612 0.765195868343 0.614336181263
0.0355155289815 0.993821596418 0.105153609993
0.413908156031 0.786586852339 -0.458215191912
0.0282905364216 0.96189084924 -0.271966247351
-0.0265946831212 0.998502272669 0.0478114453217
0.93592495558 0.296104888327 -0.190699692268
0.206572674242 0.978376348379 -0.0103658664885
0.233667097579 0.815826945961 -0.52898589939
0.0655698721118 0.992458525636 -0.103569622785
0.294531789001 0.955288371738 -0.0259836889158
0.302248774716 0.946598555567 -0.112235701902
-0.0223280892816 -0.706048832509 0.707811064156
0.0539906813354 -0.574846955156 0.816477791784
0.256008227396 0.939419420703 -0.227927487398
0.684654067495 0.713415728909 0.149287660603
0.42747149692 0.550975208686 -0.71672479986
0.180368873678 0.948416799776 -0.260715636874
0.792438976365 0.500173146487 0.34909496168
0.0786072335563 0.996690943339 -0.0206897631315
-0.255841634167 0.847471771578 0.465120043221
0.935690332786 0.252251774261 -0.246683285842
0.123531806828 0.79070756562 -0.59960106602
0.799639250641 -0.598544206647 0.0481861133827
0.528027428242 0.537138036453 0.657776379038
0.731445947697 -0.000611067787816 0.681899151043
0.878717165574 0.416962445457 0.23237569151
0.0120739203537 0.992328546163 0.123037705271
-0.400614259464 0.887130992477 0.229143660835
0.017642408632 -0.332958215085 0.942776523056
0.508724052737 -0.528815350996 0.679377776144
0.939697517754 0.252973960743 0.230158098516
0.629416830969 0.715985780492 -0.301991415484
0.885473947273 0.357366750255 0.297026757234
0.997051373403 -0.00131113036399 -0.0767257436123
0.693001860636 0.192615507378 0.694728499108
0.627997149867 0.703461174545 -0.332809188076
0.139833229931 0.989506702554 -0.0363751757096
0.880269791327 -0.462288511618 0.106838319445
0.996072618684 -0.0883705607498 0.00547560964373
0.927200367037 -0.00459939229236 0.374537481379
0.507705828109 -0.56606571987 0.649464697187
0.970536039806 0.231412737599 -0.0671411968542
0.963859381646 -0.000206647543786 0.266411429389
0.812677167721 0.482973055417 -0.326025840703
0.813479532324 0.135018199999 0.565704106542
-0.258215082369 0.954971393935 -0.146132159371
0.918680180775 -0.118999390149 -0.376650860341
0.888333880218 -0.289919461895 -0.356103387896
-0.549315102251 -0.237828167098 0.801055978927
-0.302802530347 0.721718662844 0.622441000672
-0.156994316786 -0.142808936325 0.977219725652
0.776609236666 -0.593747888767 0.210574305434
-0.66392969778 0.0480480696747 0.746249783522
0.92170849434 -0.0905785593517 -0.377159085861
0.939860702308 -0.111386262862 -0.322885367743
0.603561757925 -0.214004721688 -0.768059361941
0.433447409325 0.645051403533 0.629310758013
0.962158657137 -0.00545871224187 -0.272435168356
0.998297988029 -0.0166248644895 0.0558993826291
0.671748135644 -0.372507464015 0.640306669895
0.463081491288 -0.761832422407 -0.452953521451
0.332290188233 0.287774963101 0.898203095862
-0.178661441725 0.200566522092 0.963251348017
0.223401608266 0.950149440568 -0.217503475862
-0.00595033531663 -0.0424210444059 0.999082102983
0.799963063409 -0.124802267459 -0.586927160063
-0.524168135183 0.659080769287 -0.539314662896
0.0438159666325 0.722809856339 0.689656488875
0.133003913923 -0.458374009666 0.878750946596
-0.160705381948 0.135216415722 0.977696425856
0.423678889739 -0.443612129749 -0.789749629142
-0.176749673132 0.151122231526 0.972585021572
0.747256464156 -0.319362948366 0.582765033259
0.257746810718 0.651745297922 0.713298428571
-0.603894105001 0.791735417236 -0.0920159716537
-0.222844392506 0.0589609406002 0.973069362488
0.23246744093 0.210705292312 0.949506276282
-0.187254388534 0.164395140079 0.968457552964
-0.318830573393 0.519244178068 0.79292657227
-0.653179217985 -0.0634571232353 0.754539662777
-0.638230822356 -0.06674587598 0.766946155499
0.939324927381 0.341480862056 -0.0325499869403
-0.502746605127 0.130784737134 0.854483003673
0.968793880619 -0.0471662534806 -0.243338779088
-0.273128707088 0.0144713056183 0.961868645231
0.0206888416108 -0.606925548362 0.794489364673
0.974343940774 -0.199334582459 0.10449693447
-0.0607735379079 -0.174624212 0.982757834705
0.03700718467 0.412027624976 0.910419521177
0.0312727081981 0.0343938043034 0.998918957647
0.0927672167447 0.921998686132 -0.375915770177
0.222775594591 0.714645586743 -0.663063134101
0.710982779866 0.422267797895 -0.562310762474
0.849084538366 0.185501036236 0.494615822901
0.928447167268 -0.331649776493 -0.167314922659
0.738541068225 -0.63882424194 -0.215547392595
-0.173674110594 0.0151326251653 0.984686908091
-0.0671401517587 0.0305044405226 0.997277132562
-0.0945099081618 0.992811524741 -0.073438093661
0.894944320697 -0.00966585665825 -0.446073126368
0.12401683791 0.987507920034 -0.0972004721452
-0.687923843147 0.0312706528232 0.725108910648
0.890792020007 0.135832202537 -0.433634857739
0.993430608901 0.0105713914624 0.113946790129
0.997773267314 0.00636673475385 0.0663925577375
0.897548908901 0.00759010884019 -0.440849573412
0.101876433412 -0.0301048748787 0.994341434731
0.763550582392 0.00447071369448 -0.645732545911
-0.00797307891651 0.996989593377 -0.0771244495055
-0.454086961721 0.0322686477225 0.890372823916
0.998455752721 -0.0545297191216 0.0106122378118
-0.202450605887 -0.15831722999 0.966410578825
0.969319333888 0.00345627152065 0.24578055891
-0.121254352667 -0.52084127741 0.84499807438
0.959895249686 -0.0620533440026 -0.27340536229
-0.476705757416 0.0140923561464 0.878949956678
0.488702616183 -2.12905665307e-05 0.872450429814
0.966791667301 0.076603468129 -0.243815054308
0.429625451925 -0.706196417148 -0.562768683799
0.37624392208 -0.377103307702 0.846305858669
-0.324673948522 -0.110070899399 0.939399395495
0.224946748697 0.25963753977 0.939141793444
0.14174569744 0.989807598056 0.0137504941264
0.645575109529 0.230065761489 0.728218733175
0.435210571144 -0.00218853256833 0.900326034884
0.899834432179 -0.00367641359798 -0.436216091688
-0.320811470137 -0.000699602747336 0.947142814566
-0.484000227502 -0.143466119094 0.863227231064
-0.243364768436 0.418214285335 0.875140217923
0.946664154761 0.322075787807 0.00970386512791
0.93796137839 0.00203434457512 0.346733779854
0.747086932792 0.304012858113 -0.591132216136
0.183939986485 0.979870578826 0.0775869197957
0.821526794389 -0.515679331473 -0.243245869836
0.63258624232 0.0979468275559 0.76827147871
0.510949655745 -0.0228258170517 0.859307530149
-0.0803807478598 0.0271561529028 0.996394238609
0.741286235659 -0.0131626239577 -0.671059954216
-0.431137768731 0.0033359366895 0.902279943199
0.119643035033 -0.00437372641461 0.992807340165
0.999988811472 0.00102021526136 -0.00461910079473
0.772220287644 0.0580843370257 -0.632694268303
-0.0960516313706 0.955882515826 0.277601693166
0.960258182021 0.067286443199 -0.270881447174
0.445868068067 -0.0178629909185 0.894920431901
-0.666812449523 0.0217287958185 0.744908730378
-0.397786143215 -0.0232021050494 0.917184739618
-0.154623122958 0.0236649103455 0.987690063666
0.415717918673 -0.000280270315347 0.909493558824
0.232052876472 0.972460278414 0.0217363619047
0.545449269288 0.00831586960938 0.838102583784
-0.380637776522 0.0207290670786 0.924491854406
0.87821547426 0.00441945119343 -0.478244758697
-0.457421825145 0.0447422272272 0.888123531376
0.835055338995 0.272785413378 -0.477776829769
-0.363167131371 -0.0162656406638 0.931582021953
0.0187846847446 0.862454446398 -0.505785985875
0.132628671063 0.269676953622 0.953773545606
0.719991583481 -0.692445667663 0.0461640233502
0.999891726722 -0.0146989967679 0.000688713854522
-0.0946918955087 -0.00365604068531 0.995499913758
0.455363918841 0.729391115368 0.510521598211
0.960587113955 0.219578039228 -0.170463723978
0.933497876117 0.29807580755 -0.199330199013
0.981873783152 -0.0413585428731 -0.184968497023
-0.161245847665 -0.560018624574 0.812637014134
0.757682069698 0.00375538647384 -0.652613038738
-0.321702832043 0.0252126137793 0.946504945556
0.263104516914 0.848535568177 0.459089754535
-0.383345962482 0.221408331684 0.896673978495
0.492349041075 0.835577695025 -0.24372594718
0.743501918862 -0.248137132695 -0.620993446041
0.89582567498 0.109534403508 -0.430695454462
0.89416269973 -0.00331108169547 -0.447729944442
0.912790577511 0.0824916818511 -0.400010604901
0.997962762806 -0.0294315673796 0.0566048310153
-0.520877126395 0.850334562335 -0.0749543280724
0.051490244866 -0.0393978677107 0.997896068087
0.0291060588222 0.730992509996 0.681764466418
0.558026928261 0.349627798356 0.752573152559
0.898178143788 0.123923963072 -0.421804306994
0.908527655416 -0.07452973406 -0.411123847625
-0.171751580752 -0.351508648307 0.920295096518
0.969515607031 0.0336088303431 0.2427136878
0.444616568371 0.0201167067579 0.895495072705
0.501155907172 0.318187145618 0.804735793332
0.090582490849 0.948853530176 -0.30244303699
0.368699942337 -0.117990728672 0.922029576786
-0.383250239356 0.780833844045 0.493373856247
0.791218029903 -0.584360314166 -0.180269388371
0.86717114818 -0.426973340888 -0.256335650925
-0.229371236305 0.388155488545 0.892594058163
0.642869546896 0.604963174155 -0.469827951052
0.99063125233 -0.00247345517728 -0.136541583139
0.961666765951 0.00267098350613 0.274207762676
0.662109271891 -0.0375872911046 0.748464099088
0.62249194594 0.0231263435316 0.782284442818
0.966672582214 0.0582249927389 0.249306977471
0.546849150474 0.70356770469 0.453815481824
0.947566861848 -0.274393645595 0.163783911251
0.58121916319 -0.325951165065 0.745613923109
-0.0434930092934 0.910785662449 -0.410582312356
0.644000248076 0.739763029751 -0.194972665499
0.422986404587 0.894517851518 0.14463856626
-0.614683155263 0.0192138847869 0.788540072074
-0.0939897998034 0.987892533867 0.123427140706
-0.322764043135 0.0297813064743 0.946010806621
-0.637542845766 -0.0371858191746 0.769516948913
-0.393389294978 0.412495677828 0.821639932312
0.905829793513 -0.419052858995 -0.0621859031601
-0.314691620277 0.947152216253 0.0622242989022
-0.649249743485 0.698788565908 -0.30028205198
0.700424608512 0.558785533094 0.444031638281
-0.157516183028 0.975228588814 -0.155299232592
-0.326196052045 0.939081903085 0.108265021723
0.147398107411 0.967079527999 0.207439110239
-0.384516603556 0.900081576284 0.204939351086
-0.460634536945 0.881436868974 0.104330577434
0.0895554531281 0.988581023051 0.12119150828
0.960133456664 0.279505342238 0.00452869233174
0.995337346262 -0.0918189140986 -0.0295441051517
0.811107936918 0.581303050082 0.0647354511395
0.998965714028 -0.044725694405 -0.00819234128557
0.24496405069 -0.119683120538 0.96211671045
0.791728281465 0.54400004821 -0.277903357079
-0.208888613305 -0.284931175521 0.935510434174
0.760981957349 -0.63885200074 -0.113024695271
0.956860635798 0.0511692435277 -0.286006000245
-0.508019381723 0.846719589376 0.158057726038
-0.133878775128 -0.00619567771502 0.990978348476
0.717657307529 -0.68691375346 -0.11453158629
0.665391036724 -0.309038116098 -0.679522046033
0.877453720498 -0.464598388812 0.119261500483
0.99824247103 -0.0328206034502 0.0493434597505
-0.51222260997 0.0631777291778 0.856525873731
0.234250891793 0.824916036006 0.514431777045
0.749734062944 -0.571379680671 0.333802479587
-0.361709251352 0.932100258687 -0.0188553769889
0.443273957996 0.379371705305 0.812148574694
-0.0946818713875 0.995442452837 -0.0113871120597
0.467118826463 0.670673329006 0.576192058019
0.370835308418 0.47197882155 0.79982320924
-0.558539388043 -0.0928174538018 0.824268568049
0.765609123303 -0.594557536247 -0.245650170786
0.0901184312648 0.985971084326 -0.140498004327
-0.0258513212048 0.996214512869 0.0829961055766
-0.0789274369926 0.996820224526 0.0109498706083
-0.0601815994007 0.998187436219 -0.00013140664617
0.683677750937 0.683720947113 0.25516739477
0.0700631664578 -0.0286273133598 0.997131701249
0.369665613155 0.846106058654 0.383994624911
-0.506002067391 -0.070781617793 0.859623097862
-0.383404548568 0.841570999953 -0.380472343509
0.0886345957016 0.993926721915 0.0652194749126
0.0932224623103 0.995548966965 0.0138501586656
-0.0964781929476 0.992630345397 0.0733277279217
0.48790922421 0.795207395008 0.359985816186
0.00535020716006 0.941017255102 0.338316273454
0.289625754455 0.792499687212 0.53671330161
-0.00463050604738 0.928590254328 0.371077751935
0.173156437558 0.977320894278 -0.121904543557
0.928721423068 -0.107724263722 -0.354784443487
-0.102566931643 0.971509632498 0.213656402894
0.223606226822 0.937759027576 0.265722150989
-0.346229236967 0.900863048928 0.261860807577
0.99395570606 0.0958086103048 0.0535981770497
0.795253737955 0.479391055832 0.371154560603
0.796416243765 0.546794372209 0.258335210896
0.0557919910853 0.827790334893 0.558256585441
0.386848800153 0.889860145622 0.241861379832
0.205370896272 0.956474840256 0.207312987826
-0.599142947567 0.785982918233 0.152507641207
0.289450798564 0.810258774322 0.509606665816
-0.464921982529 0.318612071294 0.826035046585
0.638029376862 0.640465752434 0.427460096642
-0.726557351466 -0.0563993779702 0.684787211618
0.517441871273 0.659460836962 0.545312125638
0.819270639766 0.196967209554 -0.538516050994
-0.13689985149 0.967562074004 0.21232537204
-0.202794867245 0.972575282499 0.113892763998
0.207052671818 0.942639019291 0.261841307672
0.0659730647152 0.746936724406 0.661613999599
0.60246906036 0.775160523672 0.190150450564
0.667552643553 0.564704702096 -0.485264945691
0.992275016584 0.0969728279965 -0.0773728769931
0.616350087681 0.705186116481 -0.350464135879
0.825816562337 -0.00171461956406 -0.56393622463
0.969363086569 0.243393980508 -0.0330843867952
-0.677280850838 0.00136659200568 0.735723304997
-0.664731779147 0.00617447916228 0.747056582596
0.938693868128 0.120053649583 -0.323173240169
0.377716354486 0.854116838623 0.357511932016
